p cnf 11074 38347
1 0
-95 3 0
-95 2 0
95 -3 -2 0
-96 4 0
-96 3 0
96 -4 -3 0
-97 5 0
-97 4 0
97 -5 -4 0
-98 6 0
-98 5 0
98 -6 -5 0
-99 7 0
-99 6 0
99 -7 -6 0
-100 8 0
-100 7 0
100 -8 -7 0
-101 9 0
-101 8 0
101 -9 -8 0
-102 10 0
-102 9 0
102 -10 -9 0
-103 11 0
-103 10 0
103 -11 -10 0
-104 12 0
-104 32 0
104 -12 -32 0
-105 13 0
-105 12 0
105 -13 -12 0
-106 14 0
-106 13 0
106 -14 -13 0
-107 15 0
-107 14 0
107 -15 -14 0
-108 16 0
-108 15 0
108 -16 -15 0
-109 17 0
-109 16 0
109 -17 -16 0
-110 18 0
-110 17 0
110 -18 -17 0
-111 19 0
-111 18 0
111 -19 -18 0
-112 20 0
-112 19 0
112 -20 -19 0
-113 21 0
-113 20 0
113 -21 -20 0
-114 22 0
-114 21 0
114 -22 -21 0
-115 23 0
-115 22 0
115 -23 -22 0
-116 24 0
-116 23 0
116 -24 -23 0
-117 25 0
-117 24 0
117 -25 -24 0
-118 26 0
-118 25 0
118 -26 -25 0
-119 27 0
-119 26 0
119 -27 -26 0
-120 28 0
-120 27 0
120 -28 -27 0
-121 29 0
-121 28 0
121 -29 -28 0
-122 30 0
-122 29 0
122 -30 -29 0
-123 31 0
-123 30 0
123 -31 -30 0
-124 32 0
-124 31 0
124 -32 -31 0
-125 33 0
-125 53 0
125 -33 -53 0
-126 34 0
-126 33 0
126 -34 -33 0
-127 35 0
-127 34 0
127 -35 -34 0
-128 36 0
-128 35 0
128 -36 -35 0
-129 37 0
-129 36 0
129 -37 -36 0
-130 38 0
-130 37 0
130 -38 -37 0
-131 39 0
-131 38 0
131 -39 -38 0
-132 40 0
-132 39 0
132 -40 -39 0
-133 41 0
-133 40 0
133 -41 -40 0
-134 42 0
-134 41 0
134 -42 -41 0
-135 43 0
-135 42 0
135 -43 -42 0
-136 44 0
-136 43 0
136 -44 -43 0
-137 45 0
-137 44 0
137 -45 -44 0
-138 46 0
-138 45 0
138 -46 -45 0
-139 47 0
-139 46 0
139 -47 -46 0
-140 48 0
-140 47 0
140 -48 -47 0
-141 49 0
-141 48 0
141 -49 -48 0
-142 50 0
-142 49 0
142 -50 -49 0
-143 51 0
-143 50 0
143 -51 -50 0
-144 52 0
-144 51 0
144 -52 -51 0
-145 53 0
-145 52 0
145 -53 -52 0
-95 0
-96 0
-97 0
-98 0
-99 0
-100 0
-101 0
-102 0
-103 0
1 -11 0
-11 -104 0
-146 -11 0
-146 -104 0
146 11 104 0
146 -105 0
-147 146 0
-147 -105 0
147 -146 105 0
147 -106 0
-148 147 0
-148 -106 0
148 -147 106 0
148 -107 0
-149 148 0
-149 -107 0
149 -148 107 0
149 -108 0
-150 149 0
-150 -108 0
150 -149 108 0
150 -109 0
-151 150 0
-151 -109 0
151 -150 109 0
151 -110 0
-152 151 0
-152 -110 0
152 -151 110 0
152 -111 0
-153 152 0
-153 -111 0
153 -152 111 0
153 -112 0
-154 153 0
-154 -112 0
154 -153 112 0
154 -113 0
-155 154 0
-155 -113 0
155 -154 113 0
155 -114 0
-156 155 0
-156 -114 0
156 -155 114 0
156 -115 0
-157 156 0
-157 -115 0
157 -156 115 0
157 -116 0
-158 157 0
-158 -116 0
158 -157 116 0
158 -117 0
-159 158 0
-159 -117 0
159 -158 117 0
159 -118 0
-160 159 0
-160 -118 0
160 -159 118 0
160 -119 0
-161 160 0
-161 -119 0
161 -160 119 0
161 -120 0
-162 161 0
-162 -120 0
162 -161 120 0
162 -121 0
-163 162 0
-163 -121 0
163 -162 121 0
163 -122 0
-164 163 0
-164 -122 0
164 -163 122 0
164 -123 0
-165 164 0
-165 -123 0
165 -164 123 0
165 -124 0
-166 165 0
-166 -124 0
166 -165 124 0
166 -125 0
-167 166 0
-167 -125 0
167 -166 125 0
167 -126 0
-168 167 0
-168 -126 0
168 -167 126 0
168 -127 0
-169 168 0
-169 -127 0
169 -168 127 0
169 -128 0
-170 169 0
-170 -128 0
170 -169 128 0
170 -129 0
-171 170 0
-171 -129 0
171 -170 129 0
171 -130 0
-172 171 0
-172 -130 0
172 -171 130 0
172 -131 0
-173 172 0
-173 -131 0
173 -172 131 0
173 -132 0
-174 173 0
-174 -132 0
174 -173 132 0
174 -133 0
-175 174 0
-175 -133 0
175 -174 133 0
175 -134 0
-176 175 0
-176 -134 0
176 -175 134 0
176 -135 0
-177 176 0
-177 -135 0
177 -176 135 0
177 -136 0
-178 177 0
-178 -136 0
178 -177 136 0
178 -137 0
-179 178 0
-179 -137 0
179 -178 137 0
179 -138 0
-180 179 0
-180 -138 0
180 -179 138 0
180 -139 0
-181 180 0
-181 -139 0
181 -180 139 0
181 -140 0
-182 181 0
-182 -140 0
182 -181 140 0
182 -141 0
-183 182 0
-183 -141 0
183 -182 141 0
183 -142 0
-184 183 0
-184 -142 0
184 -183 142 0
184 -143 0
-185 184 0
-185 -143 0
185 -184 143 0
185 -144 0
-186 185 0
-186 -144 0
186 -185 144 0
186 -145 0
-187 186 0
-187 -145 0
187 -186 145 0
-188 4 0
-188 2 0
188 -4 -2 0
-189 5 0
-189 3 0
189 -5 -3 0
-190 6 0
-190 4 0
190 -6 -4 0
-191 7 0
-191 5 0
191 -7 -5 0
-192 8 0
-192 6 0
192 -8 -6 0
-193 9 0
-193 7 0
193 -9 -7 0
-194 10 0
-194 8 0
194 -10 -8 0
-195 11 0
-195 9 0
195 -11 -9 0
-196 12 0
-196 31 0
196 -12 -31 0
-197 13 0
-197 32 0
197 -13 -32 0
-198 14 0
-198 12 0
198 -14 -12 0
-199 15 0
-199 13 0
199 -15 -13 0
-200 16 0
-200 14 0
200 -16 -14 0
-201 17 0
-201 15 0
201 -17 -15 0
-202 18 0
-202 16 0
202 -18 -16 0
-203 19 0
-203 17 0
203 -19 -17 0
-204 20 0
-204 18 0
204 -20 -18 0
-205 21 0
-205 19 0
205 -21 -19 0
-206 22 0
-206 20 0
206 -22 -20 0
-207 23 0
-207 21 0
207 -23 -21 0
-208 24 0
-208 22 0
208 -24 -22 0
-209 25 0
-209 23 0
209 -25 -23 0
-210 26 0
-210 24 0
210 -26 -24 0
-211 27 0
-211 25 0
211 -27 -25 0
-212 28 0
-212 26 0
212 -28 -26 0
-213 29 0
-213 27 0
213 -29 -27 0
-214 30 0
-214 28 0
214 -30 -28 0
-215 31 0
-215 29 0
215 -31 -29 0
-216 32 0
-216 30 0
216 -32 -30 0
-217 33 0
-217 52 0
217 -33 -52 0
-218 34 0
-218 53 0
218 -34 -53 0
-219 35 0
-219 33 0
219 -35 -33 0
-220 36 0
-220 34 0
220 -36 -34 0
-221 37 0
-221 35 0
221 -37 -35 0
-222 38 0
-222 36 0
222 -38 -36 0
-223 39 0
-223 37 0
223 -39 -37 0
-224 40 0
-224 38 0
224 -40 -38 0
-225 41 0
-225 39 0
225 -41 -39 0
-226 42 0
-226 40 0
226 -42 -40 0
-227 43 0
-227 41 0
227 -43 -41 0
-228 44 0
-228 42 0
228 -44 -42 0
-229 45 0
-229 43 0
229 -45 -43 0
-230 46 0
-230 44 0
230 -46 -44 0
-231 47 0
-231 45 0
231 -47 -45 0
-232 48 0
-232 46 0
232 -48 -46 0
-233 49 0
-233 47 0
233 -49 -47 0
-234 50 0
-234 48 0
234 -50 -48 0
-235 51 0
-235 49 0
235 -51 -49 0
-236 52 0
-236 50 0
236 -52 -50 0
-237 53 0
-237 51 0
237 -53 -51 0
-188 0
-189 0
-190 0
-191 0
-192 0
-193 0
-194 0
-195 0
-103 0
1 -2 0
-2 -196 0
-238 -2 0
-238 -196 0
238 2 196 0
238 -197 0
-239 238 0
-239 -197 0
239 -238 197 0
239 -198 0
-240 239 0
-240 -198 0
240 -239 198 0
240 -199 0
-241 240 0
-241 -199 0
241 -240 199 0
241 -200 0
-242 241 0
-242 -200 0
242 -241 200 0
242 -201 0
-243 242 0
-243 -201 0
243 -242 201 0
243 -202 0
-244 243 0
-244 -202 0
244 -243 202 0
244 -203 0
-245 244 0
-245 -203 0
245 -244 203 0
245 -204 0
-246 245 0
-246 -204 0
246 -245 204 0
246 -205 0
-247 246 0
-247 -205 0
247 -246 205 0
247 -206 0
-248 247 0
-248 -206 0
248 -247 206 0
248 -207 0
-249 248 0
-249 -207 0
249 -248 207 0
249 -208 0
-250 249 0
-250 -208 0
250 -249 208 0
250 -209 0
-251 250 0
-251 -209 0
251 -250 209 0
251 -210 0
-252 251 0
-252 -210 0
252 -251 210 0
252 -211 0
-253 252 0
-253 -211 0
253 -252 211 0
253 -212 0
-254 253 0
-254 -212 0
254 -253 212 0
254 -213 0
-255 254 0
-255 -213 0
255 -254 213 0
255 -214 0
-256 255 0
-256 -214 0
256 -255 214 0
256 -215 0
-257 256 0
-257 -215 0
257 -256 215 0
257 -216 0
-258 257 0
-258 -216 0
258 -257 216 0
258 -217 0
-259 258 0
-259 -217 0
259 -258 217 0
259 -218 0
-260 259 0
-260 -218 0
260 -259 218 0
260 -219 0
-261 260 0
-261 -219 0
261 -260 219 0
261 -220 0
-262 261 0
-262 -220 0
262 -261 220 0
262 -221 0
-263 262 0
-263 -221 0
263 -262 221 0
263 -222 0
-264 263 0
-264 -222 0
264 -263 222 0
264 -223 0
-265 264 0
-265 -223 0
265 -264 223 0
265 -224 0
-266 265 0
-266 -224 0
266 -265 224 0
266 -225 0
-267 266 0
-267 -225 0
267 -266 225 0
267 -226 0
-268 267 0
-268 -226 0
268 -267 226 0
268 -227 0
-269 268 0
-269 -227 0
269 -268 227 0
269 -228 0
-270 269 0
-270 -228 0
270 -269 228 0
270 -229 0
-271 270 0
-271 -229 0
271 -270 229 0
271 -230 0
-272 271 0
-272 -230 0
272 -271 230 0
272 -231 0
-273 272 0
-273 -231 0
273 -272 231 0
273 -232 0
-274 273 0
-274 -232 0
274 -273 232 0
274 -233 0
-275 274 0
-275 -233 0
275 -274 233 0
275 -234 0
-276 275 0
-276 -234 0
276 -275 234 0
276 -235 0
-277 276 0
-277 -235 0
277 -276 235 0
277 -236 0
-278 277 0
-278 -236 0
278 -277 236 0
278 -237 0
-279 278 0
-279 -237 0
279 -278 237 0
-280 5 0
-280 2 0
280 -5 -2 0
-281 6 0
-281 3 0
281 -6 -3 0
-282 7 0
-282 4 0
282 -7 -4 0
-283 8 0
-283 5 0
283 -8 -5 0
-284 9 0
-284 6 0
284 -9 -6 0
-285 10 0
-285 7 0
285 -10 -7 0
-286 11 0
-286 8 0
286 -11 -8 0
-287 12 0
-287 30 0
287 -12 -30 0
-288 13 0
-288 31 0
288 -13 -31 0
-289 14 0
-289 32 0
289 -14 -32 0
-290 15 0
-290 12 0
290 -15 -12 0
-291 16 0
-291 13 0
291 -16 -13 0
-292 17 0
-292 14 0
292 -17 -14 0
-293 18 0
-293 15 0
293 -18 -15 0
-294 19 0
-294 16 0
294 -19 -16 0
-295 20 0
-295 17 0
295 -20 -17 0
-296 21 0
-296 18 0
296 -21 -18 0
-297 22 0
-297 19 0
297 -22 -19 0
-298 23 0
-298 20 0
298 -23 -20 0
-299 24 0
-299 21 0
299 -24 -21 0
-300 25 0
-300 22 0
300 -25 -22 0
-301 26 0
-301 23 0
301 -26 -23 0
-302 27 0
-302 24 0
302 -27 -24 0
-303 28 0
-303 25 0
303 -28 -25 0
-304 29 0
-304 26 0
304 -29 -26 0
-305 30 0
-305 27 0
305 -30 -27 0
-306 31 0
-306 28 0
306 -31 -28 0
-307 32 0
-307 29 0
307 -32 -29 0
-308 33 0
-308 51 0
308 -33 -51 0
-309 34 0
-309 52 0
309 -34 -52 0
-310 35 0
-310 53 0
310 -35 -53 0
-311 36 0
-311 33 0
311 -36 -33 0
-312 37 0
-312 34 0
312 -37 -34 0
-313 38 0
-313 35 0
313 -38 -35 0
-314 39 0
-314 36 0
314 -39 -36 0
-315 40 0
-315 37 0
315 -40 -37 0
-316 41 0
-316 38 0
316 -41 -38 0
-317 42 0
-317 39 0
317 -42 -39 0
-318 43 0
-318 40 0
318 -43 -40 0
-319 44 0
-319 41 0
319 -44 -41 0
-320 45 0
-320 42 0
320 -45 -42 0
-321 46 0
-321 43 0
321 -46 -43 0
-322 47 0
-322 44 0
322 -47 -44 0
-323 48 0
-323 45 0
323 -48 -45 0
-324 49 0
-324 46 0
324 -49 -46 0
-325 50 0
-325 47 0
325 -50 -47 0
-326 51 0
-326 48 0
326 -51 -48 0
-327 52 0
-327 49 0
327 -52 -49 0
-328 53 0
-328 50 0
328 -53 -50 0
-95 0
-280 0
-281 0
-282 0
-283 0
-284 0
-285 0
-286 0
-195 0
1 -10 0
-10 -287 0
-329 -10 0
-329 -287 0
329 10 287 0
329 -288 0
-330 329 0
-330 -288 0
330 -329 288 0
330 -289 0
-331 330 0
-331 -289 0
331 -330 289 0
331 -290 0
-332 331 0
-332 -290 0
332 -331 290 0
332 -291 0
-333 332 0
-333 -291 0
333 -332 291 0
333 -292 0
-334 333 0
-334 -292 0
334 -333 292 0
334 -293 0
-335 334 0
-335 -293 0
335 -334 293 0
335 -294 0
-336 335 0
-336 -294 0
336 -335 294 0
336 -295 0
-337 336 0
-337 -295 0
337 -336 295 0
337 -296 0
-338 337 0
-338 -296 0
338 -337 296 0
338 -297 0
-339 338 0
-339 -297 0
339 -338 297 0
339 -298 0
-340 339 0
-340 -298 0
340 -339 298 0
340 -299 0
-341 340 0
-341 -299 0
341 -340 299 0
341 -300 0
-342 341 0
-342 -300 0
342 -341 300 0
342 -301 0
-343 342 0
-343 -301 0
343 -342 301 0
343 -302 0
-344 343 0
-344 -302 0
344 -343 302 0
344 -303 0
-345 344 0
-345 -303 0
345 -344 303 0
345 -304 0
-346 345 0
-346 -304 0
346 -345 304 0
346 -305 0
-347 346 0
-347 -305 0
347 -346 305 0
347 -306 0
-348 347 0
-348 -306 0
348 -347 306 0
348 -307 0
-349 348 0
-349 -307 0
349 -348 307 0
349 -308 0
-350 349 0
-350 -308 0
350 -349 308 0
350 -309 0
-351 350 0
-351 -309 0
351 -350 309 0
351 -310 0
-352 351 0
-352 -310 0
352 -351 310 0
352 -311 0
-353 352 0
-353 -311 0
353 -352 311 0
353 -312 0
-354 353 0
-354 -312 0
354 -353 312 0
354 -313 0
-355 354 0
-355 -313 0
355 -354 313 0
355 -314 0
-356 355 0
-356 -314 0
356 -355 314 0
356 -315 0
-357 356 0
-357 -315 0
357 -356 315 0
357 -316 0
-358 357 0
-358 -316 0
358 -357 316 0
358 -317 0
-359 358 0
-359 -317 0
359 -358 317 0
359 -318 0
-360 359 0
-360 -318 0
360 -359 318 0
360 -319 0
-361 360 0
-361 -319 0
361 -360 319 0
361 -320 0
-362 361 0
-362 -320 0
362 -361 320 0
362 -321 0
-363 362 0
-363 -321 0
363 -362 321 0
363 -322 0
-364 363 0
-364 -322 0
364 -363 322 0
364 -323 0
-365 364 0
-365 -323 0
365 -364 323 0
365 -324 0
-366 365 0
-366 -324 0
366 -365 324 0
366 -325 0
-367 366 0
-367 -325 0
367 -366 325 0
367 -326 0
-368 367 0
-368 -326 0
368 -367 326 0
368 -327 0
-369 368 0
-369 -327 0
369 -368 327 0
369 -328 0
-370 369 0
-370 -328 0
370 -369 328 0
-371 6 0
-371 2 0
371 -6 -2 0
-372 7 0
-372 3 0
372 -7 -3 0
-373 8 0
-373 4 0
373 -8 -4 0
-374 9 0
-374 5 0
374 -9 -5 0
-375 10 0
-375 6 0
375 -10 -6 0
-376 11 0
-376 7 0
376 -11 -7 0
-377 12 0
-377 29 0
377 -12 -29 0
-378 13 0
-378 30 0
378 -13 -30 0
-379 14 0
-379 31 0
379 -14 -31 0
-380 15 0
-380 32 0
380 -15 -32 0
-381 16 0
-381 12 0
381 -16 -12 0
-382 17 0
-382 13 0
382 -17 -13 0
-383 18 0
-383 14 0
383 -18 -14 0
-384 19 0
-384 15 0
384 -19 -15 0
-385 20 0
-385 16 0
385 -20 -16 0
-386 21 0
-386 17 0
386 -21 -17 0
-387 22 0
-387 18 0
387 -22 -18 0
-388 23 0
-388 19 0
388 -23 -19 0
-389 24 0
-389 20 0
389 -24 -20 0
-390 25 0
-390 21 0
390 -25 -21 0
-391 26 0
-391 22 0
391 -26 -22 0
-392 27 0
-392 23 0
392 -27 -23 0
-393 28 0
-393 24 0
393 -28 -24 0
-394 29 0
-394 25 0
394 -29 -25 0
-395 30 0
-395 26 0
395 -30 -26 0
-396 31 0
-396 27 0
396 -31 -27 0
-397 32 0
-397 28 0
397 -32 -28 0
-398 33 0
-398 50 0
398 -33 -50 0
-399 34 0
-399 51 0
399 -34 -51 0
-400 35 0
-400 52 0
400 -35 -52 0
-401 36 0
-401 53 0
401 -36 -53 0
-402 37 0
-402 33 0
402 -37 -33 0
-403 38 0
-403 34 0
403 -38 -34 0
-404 39 0
-404 35 0
404 -39 -35 0
-405 40 0
-405 36 0
405 -40 -36 0
-406 41 0
-406 37 0
406 -41 -37 0
-407 42 0
-407 38 0
407 -42 -38 0
-408 43 0
-408 39 0
408 -43 -39 0
-409 44 0
-409 40 0
409 -44 -40 0
-410 45 0
-410 41 0
410 -45 -41 0
-411 46 0
-411 42 0
411 -46 -42 0
-412 47 0
-412 43 0
412 -47 -43 0
-413 48 0
-413 44 0
413 -48 -44 0
-414 49 0
-414 45 0
414 -49 -45 0
-415 50 0
-415 46 0
415 -50 -46 0
-416 51 0
-416 47 0
416 -51 -47 0
-417 52 0
-417 48 0
417 -52 -48 0
-418 53 0
-418 49 0
418 -53 -49 0
-188 0
-371 0
-372 0
-373 0
-374 0
-375 0
-376 0
-286 0
-102 0
1 -3 0
-3 -377 0
-419 -3 0
-419 -377 0
419 3 377 0
419 -378 0
-420 419 0
-420 -378 0
420 -419 378 0
420 -379 0
-421 420 0
-421 -379 0
421 -420 379 0
421 -380 0
-422 421 0
-422 -380 0
422 -421 380 0
422 -381 0
-423 422 0
-423 -381 0
423 -422 381 0
423 -382 0
-424 423 0
-424 -382 0
424 -423 382 0
424 -383 0
-425 424 0
-425 -383 0
425 -424 383 0
425 -384 0
-426 425 0
-426 -384 0
426 -425 384 0
426 -385 0
-427 426 0
-427 -385 0
427 -426 385 0
427 -386 0
-428 427 0
-428 -386 0
428 -427 386 0
428 -387 0
-429 428 0
-429 -387 0
429 -428 387 0
429 -388 0
-430 429 0
-430 -388 0
430 -429 388 0
430 -389 0
-431 430 0
-431 -389 0
431 -430 389 0
431 -390 0
-432 431 0
-432 -390 0
432 -431 390 0
432 -391 0
-433 432 0
-433 -391 0
433 -432 391 0
433 -392 0
-434 433 0
-434 -392 0
434 -433 392 0
434 -393 0
-435 434 0
-435 -393 0
435 -434 393 0
435 -394 0
-436 435 0
-436 -394 0
436 -435 394 0
436 -395 0
-437 436 0
-437 -395 0
437 -436 395 0
437 -396 0
-438 437 0
-438 -396 0
438 -437 396 0
438 -397 0
-439 438 0
-439 -397 0
439 -438 397 0
439 -398 0
-440 439 0
-440 -398 0
440 -439 398 0
440 -399 0
-441 440 0
-441 -399 0
441 -440 399 0
441 -400 0
-442 441 0
-442 -400 0
442 -441 400 0
442 -401 0
-443 442 0
-443 -401 0
443 -442 401 0
443 -402 0
-444 443 0
-444 -402 0
444 -443 402 0
444 -403 0
-445 444 0
-445 -403 0
445 -444 403 0
445 -404 0
-446 445 0
-446 -404 0
446 -445 404 0
446 -405 0
-447 446 0
-447 -405 0
447 -446 405 0
447 -406 0
-448 447 0
-448 -406 0
448 -447 406 0
448 -407 0
-449 448 0
-449 -407 0
449 -448 407 0
449 -408 0
-450 449 0
-450 -408 0
450 -449 408 0
450 -409 0
-451 450 0
-451 -409 0
451 -450 409 0
451 -410 0
-452 451 0
-452 -410 0
452 -451 410 0
452 -411 0
-453 452 0
-453 -411 0
453 -452 411 0
453 -412 0
-454 453 0
-454 -412 0
454 -453 412 0
454 -413 0
-455 454 0
-455 -413 0
455 -454 413 0
455 -414 0
-456 455 0
-456 -414 0
456 -455 414 0
456 -415 0
-457 456 0
-457 -415 0
457 -456 415 0
457 -416 0
-458 457 0
-458 -416 0
458 -457 416 0
458 -417 0
-459 458 0
-459 -417 0
459 -458 417 0
459 -418 0
-460 459 0
-460 -418 0
460 -459 418 0
-461 7 0
-461 2 0
461 -7 -2 0
-462 8 0
-462 3 0
462 -8 -3 0
-463 9 0
-463 4 0
463 -9 -4 0
-464 10 0
-464 5 0
464 -10 -5 0
-465 11 0
-465 6 0
465 -11 -6 0
-466 12 0
-466 28 0
466 -12 -28 0
-467 13 0
-467 29 0
467 -13 -29 0
-468 14 0
-468 30 0
468 -14 -30 0
-469 15 0
-469 31 0
469 -15 -31 0
-470 16 0
-470 32 0
470 -16 -32 0
-471 17 0
-471 12 0
471 -17 -12 0
-472 18 0
-472 13 0
472 -18 -13 0
-473 19 0
-473 14 0
473 -19 -14 0
-474 20 0
-474 15 0
474 -20 -15 0
-475 21 0
-475 16 0
475 -21 -16 0
-476 22 0
-476 17 0
476 -22 -17 0
-477 23 0
-477 18 0
477 -23 -18 0
-478 24 0
-478 19 0
478 -24 -19 0
-479 25 0
-479 20 0
479 -25 -20 0
-480 26 0
-480 21 0
480 -26 -21 0
-481 27 0
-481 22 0
481 -27 -22 0
-482 28 0
-482 23 0
482 -28 -23 0
-483 29 0
-483 24 0
483 -29 -24 0
-484 30 0
-484 25 0
484 -30 -25 0
-485 31 0
-485 26 0
485 -31 -26 0
-486 32 0
-486 27 0
486 -32 -27 0
-487 33 0
-487 49 0
487 -33 -49 0
-488 34 0
-488 50 0
488 -34 -50 0
-489 35 0
-489 51 0
489 -35 -51 0
-490 36 0
-490 52 0
490 -36 -52 0
-491 37 0
-491 53 0
491 -37 -53 0
-492 38 0
-492 33 0
492 -38 -33 0
-493 39 0
-493 34 0
493 -39 -34 0
-494 40 0
-494 35 0
494 -40 -35 0
-495 41 0
-495 36 0
495 -41 -36 0
-496 42 0
-496 37 0
496 -42 -37 0
-497 43 0
-497 38 0
497 -43 -38 0
-498 44 0
-498 39 0
498 -44 -39 0
-499 45 0
-499 40 0
499 -45 -40 0
-500 46 0
-500 41 0
500 -46 -41 0
-501 47 0
-501 42 0
501 -47 -42 0
-502 48 0
-502 43 0
502 -48 -43 0
-503 49 0
-503 44 0
503 -49 -44 0
-504 50 0
-504 45 0
504 -50 -45 0
-505 51 0
-505 46 0
505 -51 -46 0
-506 52 0
-506 47 0
506 -52 -47 0
-507 53 0
-507 48 0
507 -53 -48 0
-280 0
-96 0
-461 0
-462 0
-463 0
-464 0
-465 0
-376 0
-194 0
1 -9 0
-9 -466 0
-508 -9 0
-508 -466 0
508 9 466 0
508 -467 0
-509 508 0
-509 -467 0
509 -508 467 0
509 -468 0
-510 509 0
-510 -468 0
510 -509 468 0
510 -469 0
-511 510 0
-511 -469 0
511 -510 469 0
511 -470 0
-512 511 0
-512 -470 0
512 -511 470 0
512 -471 0
-513 512 0
-513 -471 0
513 -512 471 0
513 -472 0
-514 513 0
-514 -472 0
514 -513 472 0
514 -473 0
-515 514 0
-515 -473 0
515 -514 473 0
515 -474 0
-516 515 0
-516 -474 0
516 -515 474 0
516 -475 0
-517 516 0
-517 -475 0
517 -516 475 0
517 -476 0
-518 517 0
-518 -476 0
518 -517 476 0
518 -477 0
-519 518 0
-519 -477 0
519 -518 477 0
519 -478 0
-520 519 0
-520 -478 0
520 -519 478 0
520 -479 0
-521 520 0
-521 -479 0
521 -520 479 0
521 -480 0
-522 521 0
-522 -480 0
522 -521 480 0
522 -481 0
-523 522 0
-523 -481 0
523 -522 481 0
523 -482 0
-524 523 0
-524 -482 0
524 -523 482 0
524 -483 0
-525 524 0
-525 -483 0
525 -524 483 0
525 -484 0
-526 525 0
-526 -484 0
526 -525 484 0
526 -485 0
-527 526 0
-527 -485 0
527 -526 485 0
527 -486 0
-528 527 0
-528 -486 0
528 -527 486 0
528 -487 0
-529 528 0
-529 -487 0
529 -528 487 0
529 -488 0
-530 529 0
-530 -488 0
530 -529 488 0
530 -489 0
-531 530 0
-531 -489 0
531 -530 489 0
531 -490 0
-532 531 0
-532 -490 0
532 -531 490 0
532 -491 0
-533 532 0
-533 -491 0
533 -532 491 0
533 -492 0
-534 533 0
-534 -492 0
534 -533 492 0
534 -493 0
-535 534 0
-535 -493 0
535 -534 493 0
535 -494 0
-536 535 0
-536 -494 0
536 -535 494 0
536 -495 0
-537 536 0
-537 -495 0
537 -536 495 0
537 -496 0
-538 537 0
-538 -496 0
538 -537 496 0
538 -497 0
-539 538 0
-539 -497 0
539 -538 497 0
539 -498 0
-540 539 0
-540 -498 0
540 -539 498 0
540 -499 0
-541 540 0
-541 -499 0
541 -540 499 0
541 -500 0
-542 541 0
-542 -500 0
542 -541 500 0
542 -501 0
-543 542 0
-543 -501 0
543 -542 501 0
543 -502 0
-544 543 0
-544 -502 0
544 -543 502 0
544 -503 0
-545 544 0
-545 -503 0
545 -544 503 0
545 -504 0
-546 545 0
-546 -504 0
546 -545 504 0
546 -505 0
-547 546 0
-547 -505 0
547 -546 505 0
547 -506 0
-548 547 0
-548 -506 0
548 -547 506 0
548 -507 0
-549 548 0
-549 -507 0
549 -548 507 0
-550 8 0
-550 2 0
550 -8 -2 0
-551 9 0
-551 3 0
551 -9 -3 0
-552 10 0
-552 4 0
552 -10 -4 0
-553 11 0
-553 5 0
553 -11 -5 0
-554 12 0
-554 27 0
554 -12 -27 0
-555 13 0
-555 28 0
555 -13 -28 0
-556 14 0
-556 29 0
556 -14 -29 0
-557 15 0
-557 30 0
557 -15 -30 0
-558 16 0
-558 31 0
558 -16 -31 0
-559 17 0
-559 32 0
559 -17 -32 0
-560 18 0
-560 12 0
560 -18 -12 0
-561 19 0
-561 13 0
561 -19 -13 0
-562 20 0
-562 14 0
562 -20 -14 0
-563 21 0
-563 15 0
563 -21 -15 0
-564 22 0
-564 16 0
564 -22 -16 0
-565 23 0
-565 17 0
565 -23 -17 0
-566 24 0
-566 18 0
566 -24 -18 0
-567 25 0
-567 19 0
567 -25 -19 0
-568 26 0
-568 20 0
568 -26 -20 0
-569 27 0
-569 21 0
569 -27 -21 0
-570 28 0
-570 22 0
570 -28 -22 0
-571 29 0
-571 23 0
571 -29 -23 0
-572 30 0
-572 24 0
572 -30 -24 0
-573 31 0
-573 25 0
573 -31 -25 0
-574 32 0
-574 26 0
574 -32 -26 0
-575 33 0
-575 48 0
575 -33 -48 0
-576 34 0
-576 49 0
576 -34 -49 0
-577 35 0
-577 50 0
577 -35 -50 0
-578 36 0
-578 51 0
578 -36 -51 0
-579 37 0
-579 52 0
579 -37 -52 0
-580 38 0
-580 53 0
580 -38 -53 0
-581 39 0
-581 33 0
581 -39 -33 0
-582 40 0
-582 34 0
582 -40 -34 0
-583 41 0
-583 35 0
583 -41 -35 0
-584 42 0
-584 36 0
584 -42 -36 0
-585 43 0
-585 37 0
585 -43 -37 0
-586 44 0
-586 38 0
586 -44 -38 0
-587 45 0
-587 39 0
587 -45 -39 0
-588 46 0
-588 40 0
588 -46 -40 0
-589 47 0
-589 41 0
589 -47 -41 0
-590 48 0
-590 42 0
590 -48 -42 0
-591 49 0
-591 43 0
591 -49 -43 0
-592 50 0
-592 44 0
592 -50 -44 0
-593 51 0
-593 45 0
593 -51 -45 0
-594 52 0
-594 46 0
594 -52 -46 0
-595 53 0
-595 47 0
595 -53 -47 0
-371 0
-189 0
-550 0
-551 0
-552 0
-553 0
-465 0
-285 0
-101 0
1 -4 0
-4 -554 0
-596 -4 0
-596 -554 0
596 4 554 0
596 -555 0
-597 596 0
-597 -555 0
597 -596 555 0
597 -556 0
-598 597 0
-598 -556 0
598 -597 556 0
598 -557 0
-599 598 0
-599 -557 0
599 -598 557 0
599 -558 0
-600 599 0
-600 -558 0
600 -599 558 0
600 -559 0
-601 600 0
-601 -559 0
601 -600 559 0
601 -560 0
-602 601 0
-602 -560 0
602 -601 560 0
602 -561 0
-603 602 0
-603 -561 0
603 -602 561 0
603 -562 0
-604 603 0
-604 -562 0
604 -603 562 0
604 -563 0
-605 604 0
-605 -563 0
605 -604 563 0
605 -564 0
-606 605 0
-606 -564 0
606 -605 564 0
606 -565 0
-607 606 0
-607 -565 0
607 -606 565 0
607 -566 0
-608 607 0
-608 -566 0
608 -607 566 0
608 -567 0
-609 608 0
-609 -567 0
609 -608 567 0
609 -568 0
-610 609 0
-610 -568 0
610 -609 568 0
610 -569 0
-611 610 0
-611 -569 0
611 -610 569 0
611 -570 0
-612 611 0
-612 -570 0
612 -611 570 0
612 -571 0
-613 612 0
-613 -571 0
613 -612 571 0
613 -572 0
-614 613 0
-614 -572 0
614 -613 572 0
614 -573 0
-615 614 0
-615 -573 0
615 -614 573 0
615 -574 0
-616 615 0
-616 -574 0
616 -615 574 0
616 -575 0
-617 616 0
-617 -575 0
617 -616 575 0
617 -576 0
-618 617 0
-618 -576 0
618 -617 576 0
618 -577 0
-619 618 0
-619 -577 0
619 -618 577 0
619 -578 0
-620 619 0
-620 -578 0
620 -619 578 0
620 -579 0
-621 620 0
-621 -579 0
621 -620 579 0
621 -580 0
-622 621 0
-622 -580 0
622 -621 580 0
622 -581 0
-623 622 0
-623 -581 0
623 -622 581 0
623 -582 0
-624 623 0
-624 -582 0
624 -623 582 0
624 -583 0
-625 624 0
-625 -583 0
625 -624 583 0
625 -584 0
-626 625 0
-626 -584 0
626 -625 584 0
626 -585 0
-627 626 0
-627 -585 0
627 -626 585 0
627 -586 0
-628 627 0
-628 -586 0
628 -627 586 0
628 -587 0
-629 628 0
-629 -587 0
629 -628 587 0
629 -588 0
-630 629 0
-630 -588 0
630 -629 588 0
630 -589 0
-631 630 0
-631 -589 0
631 -630 589 0
631 -590 0
-632 631 0
-632 -590 0
632 -631 590 0
632 -591 0
-633 632 0
-633 -591 0
633 -632 591 0
633 -592 0
-634 633 0
-634 -592 0
634 -633 592 0
634 -593 0
-635 634 0
-635 -593 0
635 -634 593 0
635 -594 0
-636 635 0
-636 -594 0
636 -635 594 0
636 -595 0
-637 636 0
-637 -595 0
637 -636 595 0
-638 9 0
-638 2 0
638 -9 -2 0
-639 10 0
-639 3 0
639 -10 -3 0
-640 11 0
-640 4 0
640 -11 -4 0
-641 12 0
-641 26 0
641 -12 -26 0
-642 13 0
-642 27 0
642 -13 -27 0
-643 14 0
-643 28 0
643 -14 -28 0
-644 15 0
-644 29 0
644 -15 -29 0
-645 16 0
-645 30 0
645 -16 -30 0
-646 17 0
-646 31 0
646 -17 -31 0
-647 18 0
-647 32 0
647 -18 -32 0
-648 19 0
-648 12 0
648 -19 -12 0
-649 20 0
-649 13 0
649 -20 -13 0
-650 21 0
-650 14 0
650 -21 -14 0
-651 22 0
-651 15 0
651 -22 -15 0
-652 23 0
-652 16 0
652 -23 -16 0
-653 24 0
-653 17 0
653 -24 -17 0
-654 25 0
-654 18 0
654 -25 -18 0
-655 26 0
-655 19 0
655 -26 -19 0
-656 27 0
-656 20 0
656 -27 -20 0
-657 28 0
-657 21 0
657 -28 -21 0
-658 29 0
-658 22 0
658 -29 -22 0
-659 30 0
-659 23 0
659 -30 -23 0
-660 31 0
-660 24 0
660 -31 -24 0
-661 32 0
-661 25 0
661 -32 -25 0
-662 33 0
-662 47 0
662 -33 -47 0
-663 34 0
-663 48 0
663 -34 -48 0
-664 35 0
-664 49 0
664 -35 -49 0
-665 36 0
-665 50 0
665 -36 -50 0
-666 37 0
-666 51 0
666 -37 -51 0
-667 38 0
-667 52 0
667 -38 -52 0
-668 39 0
-668 53 0
668 -39 -53 0
-669 40 0
-669 33 0
669 -40 -33 0
-670 41 0
-670 34 0
670 -41 -34 0
-671 42 0
-671 35 0
671 -42 -35 0
-672 43 0
-672 36 0
672 -43 -36 0
-673 44 0
-673 37 0
673 -44 -37 0
-674 45 0
-674 38 0
674 -45 -38 0
-675 46 0
-675 39 0
675 -46 -39 0
-676 47 0
-676 40 0
676 -47 -40 0
-677 48 0
-677 41 0
677 -48 -41 0
-678 49 0
-678 42 0
678 -49 -42 0
-679 50 0
-679 43 0
679 -50 -43 0
-680 51 0
-680 44 0
680 -51 -44 0
-681 52 0
-681 45 0
681 -52 -45 0
-682 53 0
-682 46 0
682 -53 -46 0
-461 0
-281 0
-97 0
-638 0
-639 0
-640 0
-553 0
-375 0
-193 0
1 -8 0
-8 -641 0
-683 -8 0
-683 -641 0
683 8 641 0
683 -642 0
-684 683 0
-684 -642 0
684 -683 642 0
684 -643 0
-685 684 0
-685 -643 0
685 -684 643 0
685 -644 0
-686 685 0
-686 -644 0
686 -685 644 0
686 -645 0
-687 686 0
-687 -645 0
687 -686 645 0
687 -646 0
-688 687 0
-688 -646 0
688 -687 646 0
688 -647 0
-689 688 0
-689 -647 0
689 -688 647 0
689 -648 0
-690 689 0
-690 -648 0
690 -689 648 0
690 -649 0
-691 690 0
-691 -649 0
691 -690 649 0
691 -650 0
-692 691 0
-692 -650 0
692 -691 650 0
692 -651 0
-693 692 0
-693 -651 0
693 -692 651 0
693 -652 0
-694 693 0
-694 -652 0
694 -693 652 0
694 -653 0
-695 694 0
-695 -653 0
695 -694 653 0
695 -654 0
-696 695 0
-696 -654 0
696 -695 654 0
696 -655 0
-697 696 0
-697 -655 0
697 -696 655 0
697 -656 0
-698 697 0
-698 -656 0
698 -697 656 0
698 -657 0
-699 698 0
-699 -657 0
699 -698 657 0
699 -658 0
-700 699 0
-700 -658 0
700 -699 658 0
700 -659 0
-701 700 0
-701 -659 0
701 -700 659 0
701 -660 0
-702 701 0
-702 -660 0
702 -701 660 0
702 -661 0
-703 702 0
-703 -661 0
703 -702 661 0
703 -662 0
-704 703 0
-704 -662 0
704 -703 662 0
704 -663 0
-705 704 0
-705 -663 0
705 -704 663 0
705 -664 0
-706 705 0
-706 -664 0
706 -705 664 0
706 -665 0
-707 706 0
-707 -665 0
707 -706 665 0
707 -666 0
-708 707 0
-708 -666 0
708 -707 666 0
708 -667 0
-709 708 0
-709 -667 0
709 -708 667 0
709 -668 0
-710 709 0
-710 -668 0
710 -709 668 0
710 -669 0
-711 710 0
-711 -669 0
711 -710 669 0
711 -670 0
-712 711 0
-712 -670 0
712 -711 670 0
712 -671 0
-713 712 0
-713 -671 0
713 -712 671 0
713 -672 0
-714 713 0
-714 -672 0
714 -713 672 0
714 -673 0
-715 714 0
-715 -673 0
715 -714 673 0
715 -674 0
-716 715 0
-716 -674 0
716 -715 674 0
716 -675 0
-717 716 0
-717 -675 0
717 -716 675 0
717 -676 0
-718 717 0
-718 -676 0
718 -717 676 0
718 -677 0
-719 718 0
-719 -677 0
719 -718 677 0
719 -678 0
-720 719 0
-720 -678 0
720 -719 678 0
720 -679 0
-721 720 0
-721 -679 0
721 -720 679 0
721 -680 0
-722 721 0
-722 -680 0
722 -721 680 0
722 -681 0
-723 722 0
-723 -681 0
723 -722 681 0
723 -682 0
-724 723 0
-724 -682 0
724 -723 682 0
-725 10 0
-725 2 0
725 -10 -2 0
-726 11 0
-726 3 0
726 -11 -3 0
-727 12 0
-727 25 0
727 -12 -25 0
-728 13 0
-728 26 0
728 -13 -26 0
-729 14 0
-729 27 0
729 -14 -27 0
-730 15 0
-730 28 0
730 -15 -28 0
-731 16 0
-731 29 0
731 -16 -29 0
-732 17 0
-732 30 0
732 -17 -30 0
-733 18 0
-733 31 0
733 -18 -31 0
-734 19 0
-734 32 0
734 -19 -32 0
-735 20 0
-735 12 0
735 -20 -12 0
-736 21 0
-736 13 0
736 -21 -13 0
-737 22 0
-737 14 0
737 -22 -14 0
-738 23 0
-738 15 0
738 -23 -15 0
-739 24 0
-739 16 0
739 -24 -16 0
-740 25 0
-740 17 0
740 -25 -17 0
-741 26 0
-741 18 0
741 -26 -18 0
-742 27 0
-742 19 0
742 -27 -19 0
-743 28 0
-743 20 0
743 -28 -20 0
-744 29 0
-744 21 0
744 -29 -21 0
-745 30 0
-745 22 0
745 -30 -22 0
-746 31 0
-746 23 0
746 -31 -23 0
-747 32 0
-747 24 0
747 -32 -24 0
-748 33 0
-748 46 0
748 -33 -46 0
-749 34 0
-749 47 0
749 -34 -47 0
-750 35 0
-750 48 0
750 -35 -48 0
-751 36 0
-751 49 0
751 -36 -49 0
-752 37 0
-752 50 0
752 -37 -50 0
-753 38 0
-753 51 0
753 -38 -51 0
-754 39 0
-754 52 0
754 -39 -52 0
-755 40 0
-755 53 0
755 -40 -53 0
-756 41 0
-756 33 0
756 -41 -33 0
-757 42 0
-757 34 0
757 -42 -34 0
-758 43 0
-758 35 0
758 -43 -35 0
-759 44 0
-759 36 0
759 -44 -36 0
-760 45 0
-760 37 0
760 -45 -37 0
-761 46 0
-761 38 0
761 -46 -38 0
-762 47 0
-762 39 0
762 -47 -39 0
-763 48 0
-763 40 0
763 -48 -40 0
-764 49 0
-764 41 0
764 -49 -41 0
-765 50 0
-765 42 0
765 -50 -42 0
-766 51 0
-766 43 0
766 -51 -43 0
-767 52 0
-767 44 0
767 -52 -44 0
-768 53 0
-768 45 0
768 -53 -45 0
-550 0
-372 0
-190 0
-725 0
-726 0
-640 0
-464 0
-284 0
-100 0
1 -5 0
-5 -727 0
-769 -5 0
-769 -727 0
769 5 727 0
769 -728 0
-770 769 0
-770 -728 0
770 -769 728 0
770 -729 0
-771 770 0
-771 -729 0
771 -770 729 0
771 -730 0
-772 771 0
-772 -730 0
772 -771 730 0
772 -731 0
-773 772 0
-773 -731 0
773 -772 731 0
773 -732 0
-774 773 0
-774 -732 0
774 -773 732 0
774 -733 0
-775 774 0
-775 -733 0
775 -774 733 0
775 -734 0
-776 775 0
-776 -734 0
776 -775 734 0
776 -735 0
-777 776 0
-777 -735 0
777 -776 735 0
777 -736 0
-778 777 0
-778 -736 0
778 -777 736 0
778 -737 0
-779 778 0
-779 -737 0
779 -778 737 0
779 -738 0
-780 779 0
-780 -738 0
780 -779 738 0
780 -739 0
-781 780 0
-781 -739 0
781 -780 739 0
781 -740 0
-782 781 0
-782 -740 0
782 -781 740 0
782 -741 0
-783 782 0
-783 -741 0
783 -782 741 0
783 -742 0
-784 783 0
-784 -742 0
784 -783 742 0
784 -743 0
-785 784 0
-785 -743 0
785 -784 743 0
785 -744 0
-786 785 0
-786 -744 0
786 -785 744 0
786 -745 0
-787 786 0
-787 -745 0
787 -786 745 0
787 -746 0
-788 787 0
-788 -746 0
788 -787 746 0
788 -747 0
-789 788 0
-789 -747 0
789 -788 747 0
789 -748 0
-790 789 0
-790 -748 0
790 -789 748 0
790 -749 0
-791 790 0
-791 -749 0
791 -790 749 0
791 -750 0
-792 791 0
-792 -750 0
792 -791 750 0
792 -751 0
-793 792 0
-793 -751 0
793 -792 751 0
793 -752 0
-794 793 0
-794 -752 0
794 -793 752 0
794 -753 0
-795 794 0
-795 -753 0
795 -794 753 0
795 -754 0
-796 795 0
-796 -754 0
796 -795 754 0
796 -755 0
-797 796 0
-797 -755 0
797 -796 755 0
797 -756 0
-798 797 0
-798 -756 0
798 -797 756 0
798 -757 0
-799 798 0
-799 -757 0
799 -798 757 0
799 -758 0
-800 799 0
-800 -758 0
800 -799 758 0
800 -759 0
-801 800 0
-801 -759 0
801 -800 759 0
801 -760 0
-802 801 0
-802 -760 0
802 -801 760 0
802 -761 0
-803 802 0
-803 -761 0
803 -802 761 0
803 -762 0
-804 803 0
-804 -762 0
804 -803 762 0
804 -763 0
-805 804 0
-805 -763 0
805 -804 763 0
805 -764 0
-806 805 0
-806 -764 0
806 -805 764 0
806 -765 0
-807 806 0
-807 -765 0
807 -806 765 0
807 -766 0
-808 807 0
-808 -766 0
808 -807 766 0
808 -767 0
-809 808 0
-809 -767 0
809 -808 767 0
809 -768 0
-810 809 0
-810 -768 0
810 -809 768 0
-811 11 0
-811 2 0
811 -11 -2 0
-812 12 0
-812 24 0
812 -12 -24 0
-813 13 0
-813 25 0
813 -13 -25 0
-814 14 0
-814 26 0
814 -14 -26 0
-815 15 0
-815 27 0
815 -15 -27 0
-816 16 0
-816 28 0
816 -16 -28 0
-817 17 0
-817 29 0
817 -17 -29 0
-818 18 0
-818 30 0
818 -18 -30 0
-819 19 0
-819 31 0
819 -19 -31 0
-820 20 0
-820 32 0
820 -20 -32 0
-821 21 0
-821 12 0
821 -21 -12 0
-822 22 0
-822 13 0
822 -22 -13 0
-823 23 0
-823 14 0
823 -23 -14 0
-824 24 0
-824 15 0
824 -24 -15 0
-825 25 0
-825 16 0
825 -25 -16 0
-826 26 0
-826 17 0
826 -26 -17 0
-827 27 0
-827 18 0
827 -27 -18 0
-828 28 0
-828 19 0
828 -28 -19 0
-829 29 0
-829 20 0
829 -29 -20 0
-830 30 0
-830 21 0
830 -30 -21 0
-831 31 0
-831 22 0
831 -31 -22 0
-832 32 0
-832 23 0
832 -32 -23 0
-833 33 0
-833 45 0
833 -33 -45 0
-834 34 0
-834 46 0
834 -34 -46 0
-835 35 0
-835 47 0
835 -35 -47 0
-836 36 0
-836 48 0
836 -36 -48 0
-837 37 0
-837 49 0
837 -37 -49 0
-838 38 0
-838 50 0
838 -38 -50 0
-839 39 0
-839 51 0
839 -39 -51 0
-840 40 0
-840 52 0
840 -40 -52 0
-841 41 0
-841 53 0
841 -41 -53 0
-842 42 0
-842 33 0
842 -42 -33 0
-843 43 0
-843 34 0
843 -43 -34 0
-844 44 0
-844 35 0
844 -44 -35 0
-845 45 0
-845 36 0
845 -45 -36 0
-846 46 0
-846 37 0
846 -46 -37 0
-847 47 0
-847 38 0
847 -47 -38 0
-848 48 0
-848 39 0
848 -48 -39 0
-849 49 0
-849 40 0
849 -49 -40 0
-850 50 0
-850 41 0
850 -50 -41 0
-851 51 0
-851 42 0
851 -51 -42 0
-852 52 0
-852 43 0
852 -52 -43 0
-853 53 0
-853 44 0
853 -53 -44 0
-638 0
-462 0
-282 0
-98 0
-811 0
-726 0
-552 0
-374 0
-192 0
1 -7 0
-7 -812 0
-854 -7 0
-854 -812 0
854 7 812 0
854 -813 0
-855 854 0
-855 -813 0
855 -854 813 0
855 -814 0
-856 855 0
-856 -814 0
856 -855 814 0
856 -815 0
-857 856 0
-857 -815 0
857 -856 815 0
857 -816 0
-858 857 0
-858 -816 0
858 -857 816 0
858 -817 0
-859 858 0
-859 -817 0
859 -858 817 0
859 -818 0
-860 859 0
-860 -818 0
860 -859 818 0
860 -819 0
-861 860 0
-861 -819 0
861 -860 819 0
861 -820 0
-862 861 0
-862 -820 0
862 -861 820 0
862 -821 0
-863 862 0
-863 -821 0
863 -862 821 0
863 -822 0
-864 863 0
-864 -822 0
864 -863 822 0
864 -823 0
-865 864 0
-865 -823 0
865 -864 823 0
865 -824 0
-866 865 0
-866 -824 0
866 -865 824 0
866 -825 0
-867 866 0
-867 -825 0
867 -866 825 0
867 -826 0
-868 867 0
-868 -826 0
868 -867 826 0
868 -827 0
-869 868 0
-869 -827 0
869 -868 827 0
869 -828 0
-870 869 0
-870 -828 0
870 -869 828 0
870 -829 0
-871 870 0
-871 -829 0
871 -870 829 0
871 -830 0
-872 871 0
-872 -830 0
872 -871 830 0
872 -831 0
-873 872 0
-873 -831 0
873 -872 831 0
873 -832 0
-874 873 0
-874 -832 0
874 -873 832 0
874 -833 0
-875 874 0
-875 -833 0
875 -874 833 0
875 -834 0
-876 875 0
-876 -834 0
876 -875 834 0
876 -835 0
-877 876 0
-877 -835 0
877 -876 835 0
877 -836 0
-878 877 0
-878 -836 0
878 -877 836 0
878 -837 0
-879 878 0
-879 -837 0
879 -878 837 0
879 -838 0
-880 879 0
-880 -838 0
880 -879 838 0
880 -839 0
-881 880 0
-881 -839 0
881 -880 839 0
881 -840 0
-882 881 0
-882 -840 0
882 -881 840 0
882 -841 0
-883 882 0
-883 -841 0
883 -882 841 0
883 -842 0
-884 883 0
-884 -842 0
884 -883 842 0
884 -843 0
-885 884 0
-885 -843 0
885 -884 843 0
885 -844 0
-886 885 0
-886 -844 0
886 -885 844 0
886 -845 0
-887 886 0
-887 -845 0
887 -886 845 0
887 -846 0
-888 887 0
-888 -846 0
888 -887 846 0
888 -847 0
-889 888 0
-889 -847 0
889 -888 847 0
889 -848 0
-890 889 0
-890 -848 0
890 -889 848 0
890 -849 0
-891 890 0
-891 -849 0
891 -890 849 0
891 -850 0
-892 891 0
-892 -850 0
892 -891 850 0
892 -851 0
-893 892 0
-893 -851 0
893 -892 851 0
893 -852 0
-894 893 0
-894 -852 0
894 -893 852 0
894 -853 0
-895 894 0
-895 -853 0
895 -894 853 0
-896 12 0
-896 23 0
896 -12 -23 0
-897 13 0
-897 24 0
897 -13 -24 0
-898 14 0
-898 25 0
898 -14 -25 0
-899 15 0
-899 26 0
899 -15 -26 0
-900 16 0
-900 27 0
900 -16 -27 0
-901 17 0
-901 28 0
901 -17 -28 0
-902 18 0
-902 29 0
902 -18 -29 0
-903 19 0
-903 30 0
903 -19 -30 0
-904 20 0
-904 31 0
904 -20 -31 0
-905 21 0
-905 32 0
905 -21 -32 0
-906 22 0
-906 12 0
906 -22 -12 0
-907 23 0
-907 13 0
907 -23 -13 0
-908 24 0
-908 14 0
908 -24 -14 0
-909 25 0
-909 15 0
909 -25 -15 0
-910 26 0
-910 16 0
910 -26 -16 0
-911 27 0
-911 17 0
911 -27 -17 0
-912 28 0
-912 18 0
912 -28 -18 0
-913 29 0
-913 19 0
913 -29 -19 0
-914 30 0
-914 20 0
914 -30 -20 0
-915 31 0
-915 21 0
915 -31 -21 0
-916 32 0
-916 22 0
916 -32 -22 0
-917 33 0
-917 44 0
917 -33 -44 0
-918 34 0
-918 45 0
918 -34 -45 0
-919 35 0
-919 46 0
919 -35 -46 0
-920 36 0
-920 47 0
920 -36 -47 0
-921 37 0
-921 48 0
921 -37 -48 0
-922 38 0
-922 49 0
922 -38 -49 0
-923 39 0
-923 50 0
923 -39 -50 0
-924 40 0
-924 51 0
924 -40 -51 0
-925 41 0
-925 52 0
925 -41 -52 0
-926 42 0
-926 53 0
926 -42 -53 0
-927 43 0
-927 33 0
927 -43 -33 0
-928 44 0
-928 34 0
928 -44 -34 0
-929 45 0
-929 35 0
929 -45 -35 0
-930 46 0
-930 36 0
930 -46 -36 0
-931 47 0
-931 37 0
931 -47 -37 0
-932 48 0
-932 38 0
932 -48 -38 0
-933 49 0
-933 39 0
933 -49 -39 0
-934 50 0
-934 40 0
934 -50 -40 0
-935 51 0
-935 41 0
935 -51 -41 0
-936 52 0
-936 42 0
936 -52 -42 0
-937 53 0
-937 43 0
937 -53 -43 0
-725 0
-551 0
-373 0
-191 0
-811 0
-639 0
-463 0
-283 0
-99 0
1 -6 0
-6 -896 0
-938 -6 0
-938 -896 0
938 6 896 0
938 -897 0
-939 938 0
-939 -897 0
939 -938 897 0
939 -898 0
-940 939 0
-940 -898 0
940 -939 898 0
940 -899 0
-941 940 0
-941 -899 0
941 -940 899 0
941 -900 0
-942 941 0
-942 -900 0
942 -941 900 0
942 -901 0
-943 942 0
-943 -901 0
943 -942 901 0
943 -902 0
-944 943 0
-944 -902 0
944 -943 902 0
944 -903 0
-945 944 0
-945 -903 0
945 -944 903 0
945 -904 0
-946 945 0
-946 -904 0
946 -945 904 0
946 -905 0
-947 946 0
-947 -905 0
947 -946 905 0
947 -906 0
-948 947 0
-948 -906 0
948 -947 906 0
948 -907 0
-949 948 0
-949 -907 0
949 -948 907 0
949 -908 0
-950 949 0
-950 -908 0
950 -949 908 0
950 -909 0
-951 950 0
-951 -909 0
951 -950 909 0
951 -910 0
-952 951 0
-952 -910 0
952 -951 910 0
952 -911 0
-953 952 0
-953 -911 0
953 -952 911 0
953 -912 0
-954 953 0
-954 -912 0
954 -953 912 0
954 -913 0
-955 954 0
-955 -913 0
955 -954 913 0
955 -914 0
-956 955 0
-956 -914 0
956 -955 914 0
956 -915 0
-957 956 0
-957 -915 0
957 -956 915 0
957 -916 0
-958 957 0
-958 -916 0
958 -957 916 0
958 -917 0
-959 958 0
-959 -917 0
959 -958 917 0
959 -918 0
-960 959 0
-960 -918 0
960 -959 918 0
960 -919 0
-961 960 0
-961 -919 0
961 -960 919 0
961 -920 0
-962 961 0
-962 -920 0
962 -961 920 0
962 -921 0
-963 962 0
-963 -921 0
963 -962 921 0
963 -922 0
-964 963 0
-964 -922 0
964 -963 922 0
964 -923 0
-965 964 0
-965 -923 0
965 -964 923 0
965 -924 0
-966 965 0
-966 -924 0
966 -965 924 0
966 -925 0
-967 966 0
-967 -925 0
967 -966 925 0
967 -926 0
-968 967 0
-968 -926 0
968 -967 926 0
968 -927 0
-969 968 0
-969 -927 0
969 -968 927 0
969 -928 0
-970 969 0
-970 -928 0
970 -969 928 0
970 -929 0
-971 970 0
-971 -929 0
971 -970 929 0
971 -930 0
-972 971 0
-972 -930 0
972 -971 930 0
972 -931 0
-973 972 0
-973 -931 0
973 -972 931 0
973 -932 0
-974 973 0
-974 -932 0
974 -973 932 0
974 -933 0
-975 974 0
-975 -933 0
975 -974 933 0
975 -934 0
-976 975 0
-976 -934 0
976 -975 934 0
976 -935 0
-977 976 0
-977 -935 0
977 -976 935 0
977 -936 0
-978 977 0
-978 -936 0
978 -977 936 0
978 -937 0
-979 978 0
-979 -937 0
979 -978 937 0
-980 2 0
-980 32 0
980 -2 -32 0
-981 3 0
-981 31 0
981 -3 -31 0
-982 4 0
-982 30 0
982 -4 -30 0
-983 5 0
-983 29 0
983 -5 -29 0
-984 6 0
-984 28 0
984 -6 -28 0
-985 7 0
-985 27 0
985 -7 -27 0
-986 8 0
-986 26 0
986 -8 -26 0
-987 9 0
-987 25 0
987 -9 -25 0
-988 10 0
-988 24 0
988 -10 -24 0
-989 11 0
-989 23 0
989 -11 -23 0
-990 11 0
-990 22 0
990 -11 -22 0
-991 10 0
-991 21 0
991 -10 -21 0
-992 9 0
-992 20 0
992 -9 -20 0
-993 8 0
-993 19 0
993 -8 -19 0
-994 7 0
-994 18 0
994 -7 -18 0
-995 6 0
-995 17 0
995 -6 -17 0
-996 5 0
-996 16 0
996 -5 -16 0
-997 4 0
-997 15 0
997 -4 -15 0
-998 3 0
-998 14 0
998 -3 -14 0
-999 2 0
-999 13 0
999 -2 -13 0
-1000 13 0
-1000 54 0
1000 -13 -54 0
-1001 14 0
-1001 55 0
1001 -14 -55 0
-1002 15 0
-1002 56 0
1002 -15 -56 0
-1003 16 0
-1003 57 0
1003 -16 -57 0
-1004 17 0
-1004 58 0
1004 -17 -58 0
-1005 18 0
-1005 59 0
1005 -18 -59 0
-1006 19 0
-1006 60 0
1006 -19 -60 0
-1007 20 0
-1007 61 0
1007 -20 -61 0
-1008 21 0
-1008 62 0
1008 -21 -62 0
-1009 22 0
-1009 63 0
1009 -22 -63 0
-1010 23 0
-1010 63 0
1010 -23 -63 0
-1011 24 0
-1011 62 0
1011 -24 -62 0
-1012 25 0
-1012 61 0
1012 -25 -61 0
-1013 26 0
-1013 60 0
1013 -26 -60 0
-1014 27 0
-1014 59 0
1014 -27 -59 0
-1015 28 0
-1015 58 0
1015 -28 -58 0
-1016 29 0
-1016 57 0
1016 -29 -57 0
-1017 30 0
-1017 56 0
1017 -30 -56 0
-1018 31 0
-1018 55 0
1018 -31 -55 0
-1019 32 0
-1019 54 0
1019 -32 -54 0
-1020 33 0
-1020 64 0
1020 -33 -64 0
-1021 34 0
-1021 65 0
1021 -34 -65 0
-1022 35 0
-1022 66 0
1022 -35 -66 0
-1023 36 0
-1023 67 0
1023 -36 -67 0
-1024 37 0
-1024 68 0
1024 -37 -68 0
-1025 38 0
-1025 69 0
1025 -38 -69 0
-1026 39 0
-1026 70 0
1026 -39 -70 0
-1027 40 0
-1027 71 0
1027 -40 -71 0
-1028 41 0
-1028 72 0
1028 -41 -72 0
-1029 42 0
-1029 73 0
1029 -42 -73 0
-1030 43 0
-1030 74 0
1030 -43 -74 0
-1031 44 0
-1031 75 0
1031 -44 -75 0
-1032 45 0
-1032 76 0
1032 -45 -76 0
-1033 46 0
-1033 77 0
1033 -46 -77 0
-1034 47 0
-1034 78 0
1034 -47 -78 0
-1035 48 0
-1035 79 0
1035 -48 -79 0
-1036 49 0
-1036 80 0
1036 -49 -80 0
-1037 50 0
-1037 81 0
1037 -50 -81 0
-1038 51 0
-1038 82 0
1038 -51 -82 0
-1039 52 0
-1039 83 0
1039 -52 -83 0
-1040 53 0
-1040 84 0
1040 -53 -84 0
1 -980 0
-980 -981 0
-1041 -980 0
-1041 -981 0
1041 980 981 0
1041 -982 0
-1042 1041 0
-1042 -982 0
1042 -1041 982 0
1042 -983 0
-1043 1042 0
-1043 -983 0
1043 -1042 983 0
1043 -984 0
-1044 1043 0
-1044 -984 0
1044 -1043 984 0
1044 -985 0
-1045 1044 0
-1045 -985 0
1045 -1044 985 0
1045 -986 0
-1046 1045 0
-1046 -986 0
1046 -1045 986 0
1046 -987 0
-1047 1046 0
-1047 -987 0
1047 -1046 987 0
1047 -988 0
-1048 1047 0
-1048 -988 0
1048 -1047 988 0
1048 -989 0
-1049 1048 0
-1049 -989 0
1049 -1048 989 0
1049 -990 0
-1050 1049 0
-1050 -990 0
1050 -1049 990 0
1050 -991 0
-1051 1050 0
-1051 -991 0
1051 -1050 991 0
1051 -992 0
-1052 1051 0
-1052 -992 0
1052 -1051 992 0
1052 -993 0
-1053 1052 0
-1053 -993 0
1053 -1052 993 0
1053 -994 0
-1054 1053 0
-1054 -994 0
1054 -1053 994 0
1054 -995 0
-1055 1054 0
-1055 -995 0
1055 -1054 995 0
1055 -996 0
-1056 1055 0
-1056 -996 0
1056 -1055 996 0
1056 -997 0
-1057 1056 0
-1057 -997 0
1057 -1056 997 0
1057 -998 0
-1058 1057 0
-1058 -998 0
1058 -1057 998 0
1058 -999 0
-1059 1058 0
-1059 -999 0
1059 -1058 999 0
1059 -1000 0
-1060 1059 0
-1060 -1000 0
1060 -1059 1000 0
1060 -1001 0
-1061 1060 0
-1061 -1001 0
1061 -1060 1001 0
1061 -1002 0
-1062 1061 0
-1062 -1002 0
1062 -1061 1002 0
1062 -1003 0
-1063 1062 0
-1063 -1003 0
1063 -1062 1003 0
1063 -1004 0
-1064 1063 0
-1064 -1004 0
1064 -1063 1004 0
1064 -1005 0
-1065 1064 0
-1065 -1005 0
1065 -1064 1005 0
1065 -1006 0
-1066 1065 0
-1066 -1006 0
1066 -1065 1006 0
1066 -1007 0
-1067 1066 0
-1067 -1007 0
1067 -1066 1007 0
1067 -1008 0
-1068 1067 0
-1068 -1008 0
1068 -1067 1008 0
1068 -1009 0
-1069 1068 0
-1069 -1009 0
1069 -1068 1009 0
1069 -1010 0
-1070 1069 0
-1070 -1010 0
1070 -1069 1010 0
1070 -1011 0
-1071 1070 0
-1071 -1011 0
1071 -1070 1011 0
1071 -1012 0
-1072 1071 0
-1072 -1012 0
1072 -1071 1012 0
1072 -1013 0
-1073 1072 0
-1073 -1013 0
1073 -1072 1013 0
1073 -1014 0
-1074 1073 0
-1074 -1014 0
1074 -1073 1014 0
1074 -1015 0
-1075 1074 0
-1075 -1015 0
1075 -1074 1015 0
1075 -1016 0
-1076 1075 0
-1076 -1016 0
1076 -1075 1016 0
1076 -1017 0
-1077 1076 0
-1077 -1017 0
1077 -1076 1017 0
1077 -1018 0
-1078 1077 0
-1078 -1018 0
1078 -1077 1018 0
1078 -1019 0
-1079 1078 0
-1079 -1019 0
1079 -1078 1019 0
1079 -1020 0
-1080 1079 0
-1080 -1020 0
1080 -1079 1020 0
1080 -1021 0
-1081 1080 0
-1081 -1021 0
1081 -1080 1021 0
1081 -1022 0
-1082 1081 0
-1082 -1022 0
1082 -1081 1022 0
1082 -1023 0
-1083 1082 0
-1083 -1023 0
1083 -1082 1023 0
1083 -1024 0
-1084 1083 0
-1084 -1024 0
1084 -1083 1024 0
1084 -1025 0
-1085 1084 0
-1085 -1025 0
1085 -1084 1025 0
1085 -1026 0
-1086 1085 0
-1086 -1026 0
1086 -1085 1026 0
1086 -1027 0
-1087 1086 0
-1087 -1027 0
1087 -1086 1027 0
1087 -1028 0
-1088 1087 0
-1088 -1028 0
1088 -1087 1028 0
1088 -1029 0
-1089 1088 0
-1089 -1029 0
1089 -1088 1029 0
1089 -1030 0
-1090 1089 0
-1090 -1030 0
1090 -1089 1030 0
1090 -1031 0
-1091 1090 0
-1091 -1031 0
1091 -1090 1031 0
1091 -1032 0
-1092 1091 0
-1092 -1032 0
1092 -1091 1032 0
1092 -1033 0
-1093 1092 0
-1093 -1033 0
1093 -1092 1033 0
1093 -1034 0
-1094 1093 0
-1094 -1034 0
1094 -1093 1034 0
1094 -1035 0
-1095 1094 0
-1095 -1035 0
1095 -1094 1035 0
1095 -1036 0
-1096 1095 0
-1096 -1036 0
1096 -1095 1036 0
1096 -1037 0
-1097 1096 0
-1097 -1037 0
1097 -1096 1037 0
1097 -1038 0
-1098 1097 0
-1098 -1038 0
1098 -1097 1038 0
1098 -1039 0
-1099 1098 0
-1099 -1039 0
1099 -1098 1039 0
1099 -1040 0
-1100 1099 0
-1100 -1040 0
1100 -1099 1040 0
-1101 2 0
-1101 12 0
1101 -2 -12 0
-1102 3 0
-1102 32 0
1102 -3 -32 0
-1103 4 0
-1103 31 0
1103 -4 -31 0
-1104 5 0
-1104 30 0
1104 -5 -30 0
-1105 6 0
-1105 29 0
1105 -6 -29 0
-1106 7 0
-1106 28 0
1106 -7 -28 0
-1107 8 0
-1107 27 0
1107 -8 -27 0
-1108 9 0
-1108 26 0
1108 -9 -26 0
-1109 10 0
-1109 25 0
1109 -10 -25 0
-1110 11 0
-1110 24 0
1110 -11 -24 0
-1111 10 0
-1111 22 0
1111 -10 -22 0
-1112 9 0
-1112 21 0
1112 -9 -21 0
-1113 8 0
-1113 20 0
1113 -8 -20 0
-1114 7 0
-1114 19 0
1114 -7 -19 0
-1115 6 0
-1115 18 0
1115 -6 -18 0
-1116 5 0
-1116 17 0
1116 -5 -17 0
-1117 4 0
-1117 16 0
1117 -4 -16 0
-1118 3 0
-1118 15 0
1118 -3 -15 0
-1119 2 0
-1119 14 0
1119 -2 -14 0
-1120 12 0
-1120 54 0
1120 -12 -54 0
-1121 14 0
-1121 54 0
1121 -14 -54 0
-1122 15 0
-1122 55 0
1122 -15 -55 0
-1123 16 0
-1123 56 0
1123 -16 -56 0
-1124 17 0
-1124 57 0
1124 -17 -57 0
-1125 18 0
-1125 58 0
1125 -18 -58 0
-1126 19 0
-1126 59 0
1126 -19 -59 0
-1127 20 0
-1127 60 0
1127 -20 -60 0
-1128 21 0
-1128 61 0
1128 -21 -61 0
-1129 22 0
-1129 62 0
1129 -22 -62 0
-1130 24 0
-1130 63 0
1130 -24 -63 0
-1131 25 0
-1131 62 0
1131 -25 -62 0
-1132 26 0
-1132 61 0
1132 -26 -61 0
-1133 27 0
-1133 60 0
1133 -27 -60 0
-1134 28 0
-1134 59 0
1134 -28 -59 0
-1135 29 0
-1135 58 0
1135 -29 -58 0
-1136 30 0
-1136 57 0
1136 -30 -57 0
-1137 31 0
-1137 56 0
1137 -31 -56 0
-1138 32 0
-1138 55 0
1138 -32 -55 0
-1139 33 0
-1139 84 0
1139 -33 -84 0
-1140 34 0
-1140 64 0
1140 -34 -64 0
-1141 35 0
-1141 65 0
1141 -35 -65 0
-1142 36 0
-1142 66 0
1142 -36 -66 0
-1143 37 0
-1143 67 0
1143 -37 -67 0
-1144 38 0
-1144 68 0
1144 -38 -68 0
-1145 39 0
-1145 69 0
1145 -39 -69 0
-1146 40 0
-1146 70 0
1146 -40 -70 0
-1147 41 0
-1147 71 0
1147 -41 -71 0
-1148 42 0
-1148 72 0
1148 -42 -72 0
-1149 43 0
-1149 73 0
1149 -43 -73 0
-1150 44 0
-1150 74 0
1150 -44 -74 0
-1151 45 0
-1151 75 0
1151 -45 -75 0
-1152 46 0
-1152 76 0
1152 -46 -76 0
-1153 47 0
-1153 77 0
1153 -47 -77 0
-1154 48 0
-1154 78 0
1154 -48 -78 0
-1155 49 0
-1155 79 0
1155 -49 -79 0
-1156 50 0
-1156 80 0
1156 -50 -80 0
-1157 51 0
-1157 81 0
1157 -51 -81 0
-1158 52 0
-1158 82 0
1158 -52 -82 0
-1159 53 0
-1159 83 0
1159 -53 -83 0
1 -1101 0
-1101 -1102 0
-1160 -1101 0
-1160 -1102 0
1160 1101 1102 0
1160 -1103 0
-1161 1160 0
-1161 -1103 0
1161 -1160 1103 0
1161 -1104 0
-1162 1161 0
-1162 -1104 0
1162 -1161 1104 0
1162 -1105 0
-1163 1162 0
-1163 -1105 0
1163 -1162 1105 0
1163 -1106 0
-1164 1163 0
-1164 -1106 0
1164 -1163 1106 0
1164 -1107 0
-1165 1164 0
-1165 -1107 0
1165 -1164 1107 0
1165 -1108 0
-1166 1165 0
-1166 -1108 0
1166 -1165 1108 0
1166 -1109 0
-1167 1166 0
-1167 -1109 0
1167 -1166 1109 0
1167 -1110 0
-1168 1167 0
-1168 -1110 0
1168 -1167 1110 0
1168 -989 0
-1169 1168 0
-1169 -989 0
1169 -1168 989 0
1169 -1111 0
-1170 1169 0
-1170 -1111 0
1170 -1169 1111 0
1170 -1112 0
-1171 1170 0
-1171 -1112 0
1171 -1170 1112 0
1171 -1113 0
-1172 1171 0
-1172 -1113 0
1172 -1171 1113 0
1172 -1114 0
-1173 1172 0
-1173 -1114 0
1173 -1172 1114 0
1173 -1115 0
-1174 1173 0
-1174 -1115 0
1174 -1173 1115 0
1174 -1116 0
-1175 1174 0
-1175 -1116 0
1175 -1174 1116 0
1175 -1117 0
-1176 1175 0
-1176 -1117 0
1176 -1175 1117 0
1176 -1118 0
-1177 1176 0
-1177 -1118 0
1177 -1176 1118 0
1177 -1119 0
-1178 1177 0
-1178 -1119 0
1178 -1177 1119 0
1178 -1120 0
-1179 1178 0
-1179 -1120 0
1179 -1178 1120 0
1179 -1121 0
-1180 1179 0
-1180 -1121 0
1180 -1179 1121 0
1180 -1122 0
-1181 1180 0
-1181 -1122 0
1181 -1180 1122 0
1181 -1123 0
-1182 1181 0
-1182 -1123 0
1182 -1181 1123 0
1182 -1124 0
-1183 1182 0
-1183 -1124 0
1183 -1182 1124 0
1183 -1125 0
-1184 1183 0
-1184 -1125 0
1184 -1183 1125 0
1184 -1126 0
-1185 1184 0
-1185 -1126 0
1185 -1184 1126 0
1185 -1127 0
-1186 1185 0
-1186 -1127 0
1186 -1185 1127 0
1186 -1128 0
-1187 1186 0
-1187 -1128 0
1187 -1186 1128 0
1187 -1129 0
-1188 1187 0
-1188 -1129 0
1188 -1187 1129 0
1188 -1010 0
-1189 1188 0
-1189 -1010 0
1189 -1188 1010 0
1189 -1130 0
-1190 1189 0
-1190 -1130 0
1190 -1189 1130 0
1190 -1131 0
-1191 1190 0
-1191 -1131 0
1191 -1190 1131 0
1191 -1132 0
-1192 1191 0
-1192 -1132 0
1192 -1191 1132 0
1192 -1133 0
-1193 1192 0
-1193 -1133 0
1193 -1192 1133 0
1193 -1134 0
-1194 1193 0
-1194 -1134 0
1194 -1193 1134 0
1194 -1135 0
-1195 1194 0
-1195 -1135 0
1195 -1194 1135 0
1195 -1136 0
-1196 1195 0
-1196 -1136 0
1196 -1195 1136 0
1196 -1137 0
-1197 1196 0
-1197 -1137 0
1197 -1196 1137 0
1197 -1138 0
-1198 1197 0
-1198 -1138 0
1198 -1197 1138 0
1198 -1139 0
-1199 1198 0
-1199 -1139 0
1199 -1198 1139 0
1199 -1140 0
-1200 1199 0
-1200 -1140 0
1200 -1199 1140 0
1200 -1141 0
-1201 1200 0
-1201 -1141 0
1201 -1200 1141 0
1201 -1142 0
-1202 1201 0
-1202 -1142 0
1202 -1201 1142 0
1202 -1143 0
-1203 1202 0
-1203 -1143 0
1203 -1202 1143 0
1203 -1144 0
-1204 1203 0
-1204 -1144 0
1204 -1203 1144 0
1204 -1145 0
-1205 1204 0
-1205 -1145 0
1205 -1204 1145 0
1205 -1146 0
-1206 1205 0
-1206 -1146 0
1206 -1205 1146 0
1206 -1147 0
-1207 1206 0
-1207 -1147 0
1207 -1206 1147 0
1207 -1148 0
-1208 1207 0
-1208 -1148 0
1208 -1207 1148 0
1208 -1149 0
-1209 1208 0
-1209 -1149 0
1209 -1208 1149 0
1209 -1150 0
-1210 1209 0
-1210 -1150 0
1210 -1209 1150 0
1210 -1151 0
-1211 1210 0
-1211 -1151 0
1211 -1210 1151 0
1211 -1152 0
-1212 1211 0
-1212 -1152 0
1212 -1211 1152 0
1212 -1153 0
-1213 1212 0
-1213 -1153 0
1213 -1212 1153 0
1213 -1154 0
-1214 1213 0
-1214 -1154 0
1214 -1213 1154 0
1214 -1155 0
-1215 1214 0
-1215 -1155 0
1215 -1214 1155 0
1215 -1156 0
-1216 1215 0
-1216 -1156 0
1216 -1215 1156 0
1216 -1157 0
-1217 1216 0
-1217 -1157 0
1217 -1216 1157 0
1217 -1158 0
-1218 1217 0
-1218 -1158 0
1218 -1217 1158 0
1218 -1159 0
-1219 1218 0
-1219 -1159 0
1219 -1218 1159 0
-1220 3 0
-1220 12 0
1220 -3 -12 0
-1221 4 0
-1221 32 0
1221 -4 -32 0
-1222 5 0
-1222 31 0
1222 -5 -31 0
-1223 6 0
-1223 30 0
1223 -6 -30 0
-1224 7 0
-1224 29 0
1224 -7 -29 0
-1225 8 0
-1225 28 0
1225 -8 -28 0
-1226 9 0
-1226 27 0
1226 -9 -27 0
-1227 10 0
-1227 26 0
1227 -10 -26 0
-1228 11 0
-1228 25 0
1228 -11 -25 0
-1229 10 0
-1229 23 0
1229 -10 -23 0
-1230 9 0
-1230 22 0
1230 -9 -22 0
-1231 8 0
-1231 21 0
1231 -8 -21 0
-1232 7 0
-1232 20 0
1232 -7 -20 0
-1233 6 0
-1233 19 0
1233 -6 -19 0
-1234 5 0
-1234 18 0
1234 -5 -18 0
-1235 4 0
-1235 17 0
1235 -4 -17 0
-1236 3 0
-1236 16 0
1236 -3 -16 0
-1237 2 0
-1237 15 0
1237 -2 -15 0
-1238 12 0
-1238 55 0
1238 -12 -55 0
-1239 15 0
-1239 54 0
1239 -15 -54 0
-1240 16 0
-1240 55 0
1240 -16 -55 0
-1241 17 0
-1241 56 0
1241 -17 -56 0
-1242 18 0
-1242 57 0
1242 -18 -57 0
-1243 19 0
-1243 58 0
1243 -19 -58 0
-1244 20 0
-1244 59 0
1244 -20 -59 0
-1245 21 0
-1245 60 0
1245 -21 -60 0
-1246 22 0
-1246 61 0
1246 -22 -61 0
-1247 23 0
-1247 62 0
1247 -23 -62 0
-1248 25 0
-1248 63 0
1248 -25 -63 0
-1249 26 0
-1249 62 0
1249 -26 -62 0
-1250 27 0
-1250 61 0
1250 -27 -61 0
-1251 28 0
-1251 60 0
1251 -28 -60 0
-1252 29 0
-1252 59 0
1252 -29 -59 0
-1253 30 0
-1253 58 0
1253 -30 -58 0
-1254 31 0
-1254 57 0
1254 -31 -57 0
-1255 32 0
-1255 56 0
1255 -32 -56 0
-1256 33 0
-1256 83 0
1256 -33 -83 0
-1257 34 0
-1257 84 0
1257 -34 -84 0
-1258 35 0
-1258 64 0
1258 -35 -64 0
-1259 36 0
-1259 65 0
1259 -36 -65 0
-1260 37 0
-1260 66 0
1260 -37 -66 0
-1261 38 0
-1261 67 0
1261 -38 -67 0
-1262 39 0
-1262 68 0
1262 -39 -68 0
-1263 40 0
-1263 69 0
1263 -40 -69 0
-1264 41 0
-1264 70 0
1264 -41 -70 0
-1265 42 0
-1265 71 0
1265 -42 -71 0
-1266 43 0
-1266 72 0
1266 -43 -72 0
-1267 44 0
-1267 73 0
1267 -44 -73 0
-1268 45 0
-1268 74 0
1268 -45 -74 0
-1269 46 0
-1269 75 0
1269 -46 -75 0
-1270 47 0
-1270 76 0
1270 -47 -76 0
-1271 48 0
-1271 77 0
1271 -48 -77 0
-1272 49 0
-1272 78 0
1272 -49 -78 0
-1273 50 0
-1273 79 0
1273 -50 -79 0
-1274 51 0
-1274 80 0
1274 -51 -80 0
-1275 52 0
-1275 81 0
1275 -52 -81 0
-1276 53 0
-1276 82 0
1276 -53 -82 0
1 -999 0
-999 -1220 0
-1277 -999 0
-1277 -1220 0
1277 999 1220 0
1277 -1221 0
-1278 1277 0
-1278 -1221 0
1278 -1277 1221 0
1278 -1222 0
-1279 1278 0
-1279 -1222 0
1279 -1278 1222 0
1279 -1223 0
-1280 1279 0
-1280 -1223 0
1280 -1279 1223 0
1280 -1224 0
-1281 1280 0
-1281 -1224 0
1281 -1280 1224 0
1281 -1225 0
-1282 1281 0
-1282 -1225 0
1282 -1281 1225 0
1282 -1226 0
-1283 1282 0
-1283 -1226 0
1283 -1282 1226 0
1283 -1227 0
-1284 1283 0
-1284 -1227 0
1284 -1283 1227 0
1284 -1228 0
-1285 1284 0
-1285 -1228 0
1285 -1284 1228 0
1285 -1110 0
-1286 1285 0
-1286 -1110 0
1286 -1285 1110 0
1286 -1229 0
-1287 1286 0
-1287 -1229 0
1287 -1286 1229 0
1287 -1230 0
-1288 1287 0
-1288 -1230 0
1288 -1287 1230 0
1288 -1231 0
-1289 1288 0
-1289 -1231 0
1289 -1288 1231 0
1289 -1232 0
-1290 1289 0
-1290 -1232 0
1290 -1289 1232 0
1290 -1233 0
-1291 1290 0
-1291 -1233 0
1291 -1290 1233 0
1291 -1234 0
-1292 1291 0
-1292 -1234 0
1292 -1291 1234 0
1292 -1235 0
-1293 1292 0
-1293 -1235 0
1293 -1292 1235 0
1293 -1236 0
-1294 1293 0
-1294 -1236 0
1294 -1293 1236 0
1294 -1237 0
-1295 1294 0
-1295 -1237 0
1295 -1294 1237 0
1295 -1238 0
-1296 1295 0
-1296 -1238 0
1296 -1295 1238 0
1296 -1000 0
-1297 1296 0
-1297 -1000 0
1297 -1296 1000 0
1297 -1239 0
-1298 1297 0
-1298 -1239 0
1298 -1297 1239 0
1298 -1240 0
-1299 1298 0
-1299 -1240 0
1299 -1298 1240 0
1299 -1241 0
-1300 1299 0
-1300 -1241 0
1300 -1299 1241 0
1300 -1242 0
-1301 1300 0
-1301 -1242 0
1301 -1300 1242 0
1301 -1243 0
-1302 1301 0
-1302 -1243 0
1302 -1301 1243 0
1302 -1244 0
-1303 1302 0
-1303 -1244 0
1303 -1302 1244 0
1303 -1245 0
-1304 1303 0
-1304 -1245 0
1304 -1303 1245 0
1304 -1246 0
-1305 1304 0
-1305 -1246 0
1305 -1304 1246 0
1305 -1247 0
-1306 1305 0
-1306 -1247 0
1306 -1305 1247 0
1306 -1130 0
-1307 1306 0
-1307 -1130 0
1307 -1306 1130 0
1307 -1248 0
-1308 1307 0
-1308 -1248 0
1308 -1307 1248 0
1308 -1249 0
-1309 1308 0
-1309 -1249 0
1309 -1308 1249 0
1309 -1250 0
-1310 1309 0
-1310 -1250 0
1310 -1309 1250 0
1310 -1251 0
-1311 1310 0
-1311 -1251 0
1311 -1310 1251 0
1311 -1252 0
-1312 1311 0
-1312 -1252 0
1312 -1311 1252 0
1312 -1253 0
-1313 1312 0
-1313 -1253 0
1313 -1312 1253 0
1313 -1254 0
-1314 1313 0
-1314 -1254 0
1314 -1313 1254 0
1314 -1255 0
-1315 1314 0
-1315 -1255 0
1315 -1314 1255 0
1315 -1256 0
-1316 1315 0
-1316 -1256 0
1316 -1315 1256 0
1316 -1257 0
-1317 1316 0
-1317 -1257 0
1317 -1316 1257 0
1317 -1258 0
-1318 1317 0
-1318 -1258 0
1318 -1317 1258 0
1318 -1259 0
-1319 1318 0
-1319 -1259 0
1319 -1318 1259 0
1319 -1260 0
-1320 1319 0
-1320 -1260 0
1320 -1319 1260 0
1320 -1261 0
-1321 1320 0
-1321 -1261 0
1321 -1320 1261 0
1321 -1262 0
-1322 1321 0
-1322 -1262 0
1322 -1321 1262 0
1322 -1263 0
-1323 1322 0
-1323 -1263 0
1323 -1322 1263 0
1323 -1264 0
-1324 1323 0
-1324 -1264 0
1324 -1323 1264 0
1324 -1265 0
-1325 1324 0
-1325 -1265 0
1325 -1324 1265 0
1325 -1266 0
-1326 1325 0
-1326 -1266 0
1326 -1325 1266 0
1326 -1267 0
-1327 1326 0
-1327 -1267 0
1327 -1326 1267 0
1327 -1268 0
-1328 1327 0
-1328 -1268 0
1328 -1327 1268 0
1328 -1269 0
-1329 1328 0
-1329 -1269 0
1329 -1328 1269 0
1329 -1270 0
-1330 1329 0
-1330 -1270 0
1330 -1329 1270 0
1330 -1271 0
-1331 1330 0
-1331 -1271 0
1331 -1330 1271 0
1331 -1272 0
-1332 1331 0
-1332 -1272 0
1332 -1331 1272 0
1332 -1273 0
-1333 1332 0
-1333 -1273 0
1333 -1332 1273 0
1333 -1274 0
-1334 1333 0
-1334 -1274 0
1334 -1333 1274 0
1334 -1275 0
-1335 1334 0
-1335 -1275 0
1335 -1334 1275 0
1335 -1276 0
-1336 1335 0
-1336 -1276 0
1336 -1335 1276 0
-1337 3 0
-1337 13 0
1337 -3 -13 0
-1338 4 0
-1338 12 0
1338 -4 -12 0
-1339 5 0
-1339 32 0
1339 -5 -32 0
-1340 6 0
-1340 31 0
1340 -6 -31 0
-1341 7 0
-1341 30 0
1341 -7 -30 0
-1342 8 0
-1342 29 0
1342 -8 -29 0
-1343 9 0
-1343 28 0
1343 -9 -28 0
-1344 10 0
-1344 27 0
1344 -10 -27 0
-1345 11 0
-1345 26 0
1345 -11 -26 0
-1346 9 0
-1346 23 0
1346 -9 -23 0
-1347 8 0
-1347 22 0
1347 -8 -22 0
-1348 7 0
-1348 21 0
1348 -7 -21 0
-1349 6 0
-1349 20 0
1349 -6 -20 0
-1350 5 0
-1350 19 0
1350 -5 -19 0
-1351 4 0
-1351 18 0
1351 -4 -18 0
-1352 3 0
-1352 17 0
1352 -3 -17 0
-1353 2 0
-1353 16 0
1353 -2 -16 0
-1354 12 0
-1354 56 0
1354 -12 -56 0
-1355 13 0
-1355 55 0
1355 -13 -55 0
-1356 16 0
-1356 54 0
1356 -16 -54 0
-1357 17 0
-1357 55 0
1357 -17 -55 0
-1358 18 0
-1358 56 0
1358 -18 -56 0
-1359 19 0
-1359 57 0
1359 -19 -57 0
-1360 20 0
-1360 58 0
1360 -20 -58 0
-1361 21 0
-1361 59 0
1361 -21 -59 0
-1362 22 0
-1362 60 0
1362 -22 -60 0
-1363 23 0
-1363 61 0
1363 -23 -61 0
-1364 26 0
-1364 63 0
1364 -26 -63 0
-1365 27 0
-1365 62 0
1365 -27 -62 0
-1366 28 0
-1366 61 0
1366 -28 -61 0
-1367 29 0
-1367 60 0
1367 -29 -60 0
-1368 30 0
-1368 59 0
1368 -30 -59 0
-1369 31 0
-1369 58 0
1369 -31 -58 0
-1370 32 0
-1370 57 0
1370 -32 -57 0
-1371 33 0
-1371 82 0
1371 -33 -82 0
-1372 34 0
-1372 83 0
1372 -34 -83 0
-1373 35 0
-1373 84 0
1373 -35 -84 0
-1374 36 0
-1374 64 0
1374 -36 -64 0
-1375 37 0
-1375 65 0
1375 -37 -65 0
-1376 38 0
-1376 66 0
1376 -38 -66 0
-1377 39 0
-1377 67 0
1377 -39 -67 0
-1378 40 0
-1378 68 0
1378 -40 -68 0
-1379 41 0
-1379 69 0
1379 -41 -69 0
-1380 42 0
-1380 70 0
1380 -42 -70 0
-1381 43 0
-1381 71 0
1381 -43 -71 0
-1382 44 0
-1382 72 0
1382 -44 -72 0
-1383 45 0
-1383 73 0
1383 -45 -73 0
-1384 46 0
-1384 74 0
1384 -46 -74 0
-1385 47 0
-1385 75 0
1385 -47 -75 0
-1386 48 0
-1386 76 0
1386 -48 -76 0
-1387 49 0
-1387 77 0
1387 -49 -77 0
-1388 50 0
-1388 78 0
1388 -50 -78 0
-1389 51 0
-1389 79 0
1389 -51 -79 0
-1390 52 0
-1390 80 0
1390 -52 -80 0
-1391 53 0
-1391 81 0
1391 -53 -81 0
1 -1119 0
-1119 -1337 0
-1392 -1119 0
-1392 -1337 0
1392 1119 1337 0
1392 -1338 0
-1393 1392 0
-1393 -1338 0
1393 -1392 1338 0
1393 -1339 0
-1394 1393 0
-1394 -1339 0
1394 -1393 1339 0
1394 -1340 0
-1395 1394 0
-1395 -1340 0
1395 -1394 1340 0
1395 -1341 0
-1396 1395 0
-1396 -1341 0
1396 -1395 1341 0
1396 -1342 0
-1397 1396 0
-1397 -1342 0
1397 -1396 1342 0
1397 -1343 0
-1398 1397 0
-1398 -1343 0
1398 -1397 1343 0
1398 -1344 0
-1399 1398 0
-1399 -1344 0
1399 -1398 1344 0
1399 -1345 0
-1400 1399 0
-1400 -1345 0
1400 -1399 1345 0
1400 -1228 0
-1401 1400 0
-1401 -1228 0
1401 -1400 1228 0
1401 -988 0
-1402 1401 0
-1402 -988 0
1402 -1401 988 0
1402 -1346 0
-1403 1402 0
-1403 -1346 0
1403 -1402 1346 0
1403 -1347 0
-1404 1403 0
-1404 -1347 0
1404 -1403 1347 0
1404 -1348 0
-1405 1404 0
-1405 -1348 0
1405 -1404 1348 0
1405 -1349 0
-1406 1405 0
-1406 -1349 0
1406 -1405 1349 0
1406 -1350 0
-1407 1406 0
-1407 -1350 0
1407 -1406 1350 0
1407 -1351 0
-1408 1407 0
-1408 -1351 0
1408 -1407 1351 0
1408 -1352 0
-1409 1408 0
-1409 -1352 0
1409 -1408 1352 0
1409 -1353 0
-1410 1409 0
-1410 -1353 0
1410 -1409 1353 0
1410 -1354 0
-1411 1410 0
-1411 -1354 0
1411 -1410 1354 0
1411 -1355 0
-1412 1411 0
-1412 -1355 0
1412 -1411 1355 0
1412 -1121 0
-1413 1412 0
-1413 -1121 0
1413 -1412 1121 0
1413 -1356 0
-1414 1413 0
-1414 -1356 0
1414 -1413 1356 0
1414 -1357 0
-1415 1414 0
-1415 -1357 0
1415 -1414 1357 0
1415 -1358 0
-1416 1415 0
-1416 -1358 0
1416 -1415 1358 0
1416 -1359 0
-1417 1416 0
-1417 -1359 0
1417 -1416 1359 0
1417 -1360 0
-1418 1417 0
-1418 -1360 0
1418 -1417 1360 0
1418 -1361 0
-1419 1418 0
-1419 -1361 0
1419 -1418 1361 0
1419 -1362 0
-1420 1419 0
-1420 -1362 0
1420 -1419 1362 0
1420 -1363 0
-1421 1420 0
-1421 -1363 0
1421 -1420 1363 0
1421 -1011 0
-1422 1421 0
-1422 -1011 0
1422 -1421 1011 0
1422 -1248 0
-1423 1422 0
-1423 -1248 0
1423 -1422 1248 0
1423 -1364 0
-1424 1423 0
-1424 -1364 0
1424 -1423 1364 0
1424 -1365 0
-1425 1424 0
-1425 -1365 0
1425 -1424 1365 0
1425 -1366 0
-1426 1425 0
-1426 -1366 0
1426 -1425 1366 0
1426 -1367 0
-1427 1426 0
-1427 -1367 0
1427 -1426 1367 0
1427 -1368 0
-1428 1427 0
-1428 -1368 0
1428 -1427 1368 0
1428 -1369 0
-1429 1428 0
-1429 -1369 0
1429 -1428 1369 0
1429 -1370 0
-1430 1429 0
-1430 -1370 0
1430 -1429 1370 0
1430 -1371 0
-1431 1430 0
-1431 -1371 0
1431 -1430 1371 0
1431 -1372 0
-1432 1431 0
-1432 -1372 0
1432 -1431 1372 0
1432 -1373 0
-1433 1432 0
-1433 -1373 0
1433 -1432 1373 0
1433 -1374 0
-1434 1433 0
-1434 -1374 0
1434 -1433 1374 0
1434 -1375 0
-1435 1434 0
-1435 -1375 0
1435 -1434 1375 0
1435 -1376 0
-1436 1435 0
-1436 -1376 0
1436 -1435 1376 0
1436 -1377 0
-1437 1436 0
-1437 -1377 0
1437 -1436 1377 0
1437 -1378 0
-1438 1437 0
-1438 -1378 0
1438 -1437 1378 0
1438 -1379 0
-1439 1438 0
-1439 -1379 0
1439 -1438 1379 0
1439 -1380 0
-1440 1439 0
-1440 -1380 0
1440 -1439 1380 0
1440 -1381 0
-1441 1440 0
-1441 -1381 0
1441 -1440 1381 0
1441 -1382 0
-1442 1441 0
-1442 -1382 0
1442 -1441 1382 0
1442 -1383 0
-1443 1442 0
-1443 -1383 0
1443 -1442 1383 0
1443 -1384 0
-1444 1443 0
-1444 -1384 0
1444 -1443 1384 0
1444 -1385 0
-1445 1444 0
-1445 -1385 0
1445 -1444 1385 0
1445 -1386 0
-1446 1445 0
-1446 -1386 0
1446 -1445 1386 0
1446 -1387 0
-1447 1446 0
-1447 -1387 0
1447 -1446 1387 0
1447 -1388 0
-1448 1447 0
-1448 -1388 0
1448 -1447 1388 0
1448 -1389 0
-1449 1448 0
-1449 -1389 0
1449 -1448 1389 0
1449 -1390 0
-1450 1449 0
-1450 -1390 0
1450 -1449 1390 0
1450 -1391 0
-1451 1450 0
-1451 -1391 0
1451 -1450 1391 0
-1452 4 0
-1452 13 0
1452 -4 -13 0
-1453 5 0
-1453 12 0
1453 -5 -12 0
-1454 6 0
-1454 32 0
1454 -6 -32 0
-1455 7 0
-1455 31 0
1455 -7 -31 0
-1456 8 0
-1456 30 0
1456 -8 -30 0
-1457 9 0
-1457 29 0
1457 -9 -29 0
-1458 10 0
-1458 28 0
1458 -10 -28 0
-1459 11 0
-1459 27 0
1459 -11 -27 0
-1460 9 0
-1460 24 0
1460 -9 -24 0
-1461 8 0
-1461 23 0
1461 -8 -23 0
-1462 7 0
-1462 22 0
1462 -7 -22 0
-1463 6 0
-1463 21 0
1463 -6 -21 0
-1464 5 0
-1464 20 0
1464 -5 -20 0
-1465 4 0
-1465 19 0
1465 -4 -19 0
-1466 3 0
-1466 18 0
1466 -3 -18 0
-1467 2 0
-1467 17 0
1467 -2 -17 0
-1468 12 0
-1468 57 0
1468 -12 -57 0
-1469 13 0
-1469 56 0
1469 -13 -56 0
-1470 17 0
-1470 54 0
1470 -17 -54 0
-1471 18 0
-1471 55 0
1471 -18 -55 0
-1472 19 0
-1472 56 0
1472 -19 -56 0
-1473 20 0
-1473 57 0
1473 -20 -57 0
-1474 21 0
-1474 58 0
1474 -21 -58 0
-1475 22 0
-1475 59 0
1475 -22 -59 0
-1476 23 0
-1476 60 0
1476 -23 -60 0
-1477 24 0
-1477 61 0
1477 -24 -61 0
-1478 27 0
-1478 63 0
1478 -27 -63 0
-1479 28 0
-1479 62 0
1479 -28 -62 0
-1480 29 0
-1480 61 0
1480 -29 -61 0
-1481 30 0
-1481 60 0
1481 -30 -60 0
-1482 31 0
-1482 59 0
1482 -31 -59 0
-1483 32 0
-1483 58 0
1483 -32 -58 0
-1484 33 0
-1484 81 0
1484 -33 -81 0
-1485 34 0
-1485 82 0
1485 -34 -82 0
-1486 35 0
-1486 83 0
1486 -35 -83 0
-1487 36 0
-1487 84 0
1487 -36 -84 0
-1488 37 0
-1488 64 0
1488 -37 -64 0
-1489 38 0
-1489 65 0
1489 -38 -65 0
-1490 39 0
-1490 66 0
1490 -39 -66 0
-1491 40 0
-1491 67 0
1491 -40 -67 0
-1492 41 0
-1492 68 0
1492 -41 -68 0
-1493 42 0
-1493 69 0
1493 -42 -69 0
-1494 43 0
-1494 70 0
1494 -43 -70 0
-1495 44 0
-1495 71 0
1495 -44 -71 0
-1496 45 0
-1496 72 0
1496 -45 -72 0
-1497 46 0
-1497 73 0
1497 -46 -73 0
-1498 47 0
-1498 74 0
1498 -47 -74 0
-1499 48 0
-1499 75 0
1499 -48 -75 0
-1500 49 0
-1500 76 0
1500 -49 -76 0
-1501 50 0
-1501 77 0
1501 -50 -77 0
-1502 51 0
-1502 78 0
1502 -51 -78 0
-1503 52 0
-1503 79 0
1503 -52 -79 0
-1504 53 0
-1504 80 0
1504 -53 -80 0
1 -1237 0
-1237 -998 0
-1505 -1237 0
-1505 -998 0
1505 1237 998 0
1505 -1452 0
-1506 1505 0
-1506 -1452 0
1506 -1505 1452 0
1506 -1453 0
-1507 1506 0
-1507 -1453 0
1507 -1506 1453 0
1507 -1454 0
-1508 1507 0
-1508 -1454 0
1508 -1507 1454 0
1508 -1455 0
-1509 1508 0
-1509 -1455 0
1509 -1508 1455 0
1509 -1456 0
-1510 1509 0
-1510 -1456 0
1510 -1509 1456 0
1510 -1457 0
-1511 1510 0
-1511 -1457 0
1511 -1510 1457 0
1511 -1458 0
-1512 1511 0
-1512 -1458 0
1512 -1511 1458 0
1512 -1459 0
-1513 1512 0
-1513 -1459 0
1513 -1512 1459 0
1513 -1345 0
-1514 1513 0
-1514 -1345 0
1514 -1513 1345 0
1514 -1109 0
-1515 1514 0
-1515 -1109 0
1515 -1514 1109 0
1515 -1460 0
-1516 1515 0
-1516 -1460 0
1516 -1515 1460 0
1516 -1461 0
-1517 1516 0
-1517 -1461 0
1517 -1516 1461 0
1517 -1462 0
-1518 1517 0
-1518 -1462 0
1518 -1517 1462 0
1518 -1463 0
-1519 1518 0
-1519 -1463 0
1519 -1518 1463 0
1519 -1464 0
-1520 1519 0
-1520 -1464 0
1520 -1519 1464 0
1520 -1465 0
-1521 1520 0
-1521 -1465 0
1521 -1520 1465 0
1521 -1466 0
-1522 1521 0
-1522 -1466 0
1522 -1521 1466 0
1522 -1467 0
-1523 1522 0
-1523 -1467 0
1523 -1522 1467 0
1523 -1468 0
-1524 1523 0
-1524 -1468 0
1524 -1523 1468 0
1524 -1469 0
-1525 1524 0
-1525 -1469 0
1525 -1524 1469 0
1525 -1001 0
-1526 1525 0
-1526 -1001 0
1526 -1525 1001 0
1526 -1239 0
-1527 1526 0
-1527 -1239 0
1527 -1526 1239 0
1527 -1470 0
-1528 1527 0
-1528 -1470 0
1528 -1527 1470 0
1528 -1471 0
-1529 1528 0
-1529 -1471 0
1529 -1528 1471 0
1529 -1472 0
-1530 1529 0
-1530 -1472 0
1530 -1529 1472 0
1530 -1473 0
-1531 1530 0
-1531 -1473 0
1531 -1530 1473 0
1531 -1474 0
-1532 1531 0
-1532 -1474 0
1532 -1531 1474 0
1532 -1475 0
-1533 1532 0
-1533 -1475 0
1533 -1532 1475 0
1533 -1476 0
-1534 1533 0
-1534 -1476 0
1534 -1533 1476 0
1534 -1477 0
-1535 1534 0
-1535 -1477 0
1535 -1534 1477 0
1535 -1131 0
-1536 1535 0
-1536 -1131 0
1536 -1535 1131 0
1536 -1364 0
-1537 1536 0
-1537 -1364 0
1537 -1536 1364 0
1537 -1478 0
-1538 1537 0
-1538 -1478 0
1538 -1537 1478 0
1538 -1479 0
-1539 1538 0
-1539 -1479 0
1539 -1538 1479 0
1539 -1480 0
-1540 1539 0
-1540 -1480 0
1540 -1539 1480 0
1540 -1481 0
-1541 1540 0
-1541 -1481 0
1541 -1540 1481 0
1541 -1482 0
-1542 1541 0
-1542 -1482 0
1542 -1541 1482 0
1542 -1483 0
-1543 1542 0
-1543 -1483 0
1543 -1542 1483 0
1543 -1484 0
-1544 1543 0
-1544 -1484 0
1544 -1543 1484 0
1544 -1485 0
-1545 1544 0
-1545 -1485 0
1545 -1544 1485 0
1545 -1486 0
-1546 1545 0
-1546 -1486 0
1546 -1545 1486 0
1546 -1487 0
-1547 1546 0
-1547 -1487 0
1547 -1546 1487 0
1547 -1488 0
-1548 1547 0
-1548 -1488 0
1548 -1547 1488 0
1548 -1489 0
-1549 1548 0
-1549 -1489 0
1549 -1548 1489 0
1549 -1490 0
-1550 1549 0
-1550 -1490 0
1550 -1549 1490 0
1550 -1491 0
-1551 1550 0
-1551 -1491 0
1551 -1550 1491 0
1551 -1492 0
-1552 1551 0
-1552 -1492 0
1552 -1551 1492 0
1552 -1493 0
-1553 1552 0
-1553 -1493 0
1553 -1552 1493 0
1553 -1494 0
-1554 1553 0
-1554 -1494 0
1554 -1553 1494 0
1554 -1495 0
-1555 1554 0
-1555 -1495 0
1555 -1554 1495 0
1555 -1496 0
-1556 1555 0
-1556 -1496 0
1556 -1555 1496 0
1556 -1497 0
-1557 1556 0
-1557 -1497 0
1557 -1556 1497 0
1557 -1498 0
-1558 1557 0
-1558 -1498 0
1558 -1557 1498 0
1558 -1499 0
-1559 1558 0
-1559 -1499 0
1559 -1558 1499 0
1559 -1500 0
-1560 1559 0
-1560 -1500 0
1560 -1559 1500 0
1560 -1501 0
-1561 1560 0
-1561 -1501 0
1561 -1560 1501 0
1561 -1502 0
-1562 1561 0
-1562 -1502 0
1562 -1561 1502 0
1562 -1503 0
-1563 1562 0
-1563 -1503 0
1563 -1562 1503 0
1563 -1504 0
-1564 1563 0
-1564 -1504 0
1564 -1563 1504 0
-1565 4 0
-1565 14 0
1565 -4 -14 0
-1566 5 0
-1566 13 0
1566 -5 -13 0
-1567 6 0
-1567 12 0
1567 -6 -12 0
-1568 7 0
-1568 32 0
1568 -7 -32 0
-1569 8 0
-1569 31 0
1569 -8 -31 0
-1570 9 0
-1570 30 0
1570 -9 -30 0
-1571 10 0
-1571 29 0
1571 -10 -29 0
-1572 11 0
-1572 28 0
1572 -11 -28 0
-1573 8 0
-1573 24 0
1573 -8 -24 0
-1574 7 0
-1574 23 0
1574 -7 -23 0
-1575 6 0
-1575 22 0
1575 -6 -22 0
-1576 5 0
-1576 21 0
1576 -5 -21 0
-1577 4 0
-1577 20 0
1577 -4 -20 0
-1578 3 0
-1578 19 0
1578 -3 -19 0
-1579 2 0
-1579 18 0
1579 -2 -18 0
-1580 12 0
-1580 58 0
1580 -12 -58 0
-1581 13 0
-1581 57 0
1581 -13 -57 0
-1582 14 0
-1582 56 0
1582 -14 -56 0
-1583 18 0
-1583 54 0
1583 -18 -54 0
-1584 19 0
-1584 55 0
1584 -19 -55 0
-1585 20 0
-1585 56 0
1585 -20 -56 0
-1586 21 0
-1586 57 0
1586 -21 -57 0
-1587 22 0
-1587 58 0
1587 -22 -58 0
-1588 23 0
-1588 59 0
1588 -23 -59 0
-1589 24 0
-1589 60 0
1589 -24 -60 0
-1590 28 0
-1590 63 0
1590 -28 -63 0
-1591 29 0
-1591 62 0
1591 -29 -62 0
-1592 30 0
-1592 61 0
1592 -30 -61 0
-1593 31 0
-1593 60 0
1593 -31 -60 0
-1594 32 0
-1594 59 0
1594 -32 -59 0
-1595 33 0
-1595 80 0
1595 -33 -80 0
-1596 34 0
-1596 81 0
1596 -34 -81 0
-1597 35 0
-1597 82 0
1597 -35 -82 0
-1598 36 0
-1598 83 0
1598 -36 -83 0
-1599 37 0
-1599 84 0
1599 -37 -84 0
-1600 38 0
-1600 64 0
1600 -38 -64 0
-1601 39 0
-1601 65 0
1601 -39 -65 0
-1602 40 0
-1602 66 0
1602 -40 -66 0
-1603 41 0
-1603 67 0
1603 -41 -67 0
-1604 42 0
-1604 68 0
1604 -42 -68 0
-1605 43 0
-1605 69 0
1605 -43 -69 0
-1606 44 0
-1606 70 0
1606 -44 -70 0
-1607 45 0
-1607 71 0
1607 -45 -71 0
-1608 46 0
-1608 72 0
1608 -46 -72 0
-1609 47 0
-1609 73 0
1609 -47 -73 0
-1610 48 0
-1610 74 0
1610 -48 -74 0
-1611 49 0
-1611 75 0
1611 -49 -75 0
-1612 50 0
-1612 76 0
1612 -50 -76 0
-1613 51 0
-1613 77 0
1613 -51 -77 0
-1614 52 0
-1614 78 0
1614 -52 -78 0
-1615 53 0
-1615 79 0
1615 -53 -79 0
1 -1353 0
-1353 -1118 0
-1616 -1353 0
-1616 -1118 0
1616 1353 1118 0
1616 -1565 0
-1617 1616 0
-1617 -1565 0
1617 -1616 1565 0
1617 -1566 0
-1618 1617 0
-1618 -1566 0
1618 -1617 1566 0
1618 -1567 0
-1619 1618 0
-1619 -1567 0
1619 -1618 1567 0
1619 -1568 0
-1620 1619 0
-1620 -1568 0
1620 -1619 1568 0
1620 -1569 0
-1621 1620 0
-1621 -1569 0
1621 -1620 1569 0
1621 -1570 0
-1622 1621 0
-1622 -1570 0
1622 -1621 1570 0
1622 -1571 0
-1623 1622 0
-1623 -1571 0
1623 -1622 1571 0
1623 -1572 0
-1624 1623 0
-1624 -1572 0
1624 -1623 1572 0
1624 -1459 0
-1625 1624 0
-1625 -1459 0
1625 -1624 1459 0
1625 -1227 0
-1626 1625 0
-1626 -1227 0
1626 -1625 1227 0
1626 -987 0
-1627 1626 0
-1627 -987 0
1627 -1626 987 0
1627 -1573 0
-1628 1627 0
-1628 -1573 0
1628 -1627 1573 0
1628 -1574 0
-1629 1628 0
-1629 -1574 0
1629 -1628 1574 0
1629 -1575 0
-1630 1629 0
-1630 -1575 0
1630 -1629 1575 0
1630 -1576 0
-1631 1630 0
-1631 -1576 0
1631 -1630 1576 0
1631 -1577 0
-1632 1631 0
-1632 -1577 0
1632 -1631 1577 0
1632 -1578 0
-1633 1632 0
-1633 -1578 0
1633 -1632 1578 0
1633 -1579 0
-1634 1633 0
-1634 -1579 0
1634 -1633 1579 0
1634 -1580 0
-1635 1634 0
-1635 -1580 0
1635 -1634 1580 0
1635 -1581 0
-1636 1635 0
-1636 -1581 0
1636 -1635 1581 0
1636 -1582 0
-1637 1636 0
-1637 -1582 0
1637 -1636 1582 0
1637 -1122 0
-1638 1637 0
-1638 -1122 0
1638 -1637 1122 0
1638 -1356 0
-1639 1638 0
-1639 -1356 0
1639 -1638 1356 0
1639 -1583 0
-1640 1639 0
-1640 -1583 0
1640 -1639 1583 0
1640 -1584 0
-1641 1640 0
-1641 -1584 0
1641 -1640 1584 0
1641 -1585 0
-1642 1641 0
-1642 -1585 0
1642 -1641 1585 0
1642 -1586 0
-1643 1642 0
-1643 -1586 0
1643 -1642 1586 0
1643 -1587 0
-1644 1643 0
-1644 -1587 0
1644 -1643 1587 0
1644 -1588 0
-1645 1644 0
-1645 -1588 0
1645 -1644 1588 0
1645 -1589 0
-1646 1645 0
-1646 -1589 0
1646 -1645 1589 0
1646 -1012 0
-1647 1646 0
-1647 -1012 0
1647 -1646 1012 0
1647 -1249 0
-1648 1647 0
-1648 -1249 0
1648 -1647 1249 0
1648 -1478 0
-1649 1648 0
-1649 -1478 0
1649 -1648 1478 0
1649 -1590 0
-1650 1649 0
-1650 -1590 0
1650 -1649 1590 0
1650 -1591 0
-1651 1650 0
-1651 -1591 0
1651 -1650 1591 0
1651 -1592 0
-1652 1651 0
-1652 -1592 0
1652 -1651 1592 0
1652 -1593 0
-1653 1652 0
-1653 -1593 0
1653 -1652 1593 0
1653 -1594 0
-1654 1653 0
-1654 -1594 0
1654 -1653 1594 0
1654 -1595 0
-1655 1654 0
-1655 -1595 0
1655 -1654 1595 0
1655 -1596 0
-1656 1655 0
-1656 -1596 0
1656 -1655 1596 0
1656 -1597 0
-1657 1656 0
-1657 -1597 0
1657 -1656 1597 0
1657 -1598 0
-1658 1657 0
-1658 -1598 0
1658 -1657 1598 0
1658 -1599 0
-1659 1658 0
-1659 -1599 0
1659 -1658 1599 0
1659 -1600 0
-1660 1659 0
-1660 -1600 0
1660 -1659 1600 0
1660 -1601 0
-1661 1660 0
-1661 -1601 0
1661 -1660 1601 0
1661 -1602 0
-1662 1661 0
-1662 -1602 0
1662 -1661 1602 0
1662 -1603 0
-1663 1662 0
-1663 -1603 0
1663 -1662 1603 0
1663 -1604 0
-1664 1663 0
-1664 -1604 0
1664 -1663 1604 0
1664 -1605 0
-1665 1664 0
-1665 -1605 0
1665 -1664 1605 0
1665 -1606 0
-1666 1665 0
-1666 -1606 0
1666 -1665 1606 0
1666 -1607 0
-1667 1666 0
-1667 -1607 0
1667 -1666 1607 0
1667 -1608 0
-1668 1667 0
-1668 -1608 0
1668 -1667 1608 0
1668 -1609 0
-1669 1668 0
-1669 -1609 0
1669 -1668 1609 0
1669 -1610 0
-1670 1669 0
-1670 -1610 0
1670 -1669 1610 0
1670 -1611 0
-1671 1670 0
-1671 -1611 0
1671 -1670 1611 0
1671 -1612 0
-1672 1671 0
-1672 -1612 0
1672 -1671 1612 0
1672 -1613 0
-1673 1672 0
-1673 -1613 0
1673 -1672 1613 0
1673 -1614 0
-1674 1673 0
-1674 -1614 0
1674 -1673 1614 0
1674 -1615 0
-1675 1674 0
-1675 -1615 0
1675 -1674 1615 0
-1676 5 0
-1676 14 0
1676 -5 -14 0
-1677 6 0
-1677 13 0
1677 -6 -13 0
-1678 7 0
-1678 12 0
1678 -7 -12 0
-1679 8 0
-1679 32 0
1679 -8 -32 0
-1680 9 0
-1680 31 0
1680 -9 -31 0
-1681 10 0
-1681 30 0
1681 -10 -30 0
-1682 11 0
-1682 29 0
1682 -11 -29 0
-1683 8 0
-1683 25 0
1683 -8 -25 0
-1684 7 0
-1684 24 0
1684 -7 -24 0
-1685 6 0
-1685 23 0
1685 -6 -23 0
-1686 5 0
-1686 22 0
1686 -5 -22 0
-1687 4 0
-1687 21 0
1687 -4 -21 0
-1688 3 0
-1688 20 0
1688 -3 -20 0
-1689 2 0
-1689 19 0
1689 -2 -19 0
-1690 12 0
-1690 59 0
1690 -12 -59 0
-1691 13 0
-1691 58 0
1691 -13 -58 0
-1692 14 0
-1692 57 0
1692 -14 -57 0
-1693 19 0
-1693 54 0
1693 -19 -54 0
-1694 20 0
-1694 55 0
1694 -20 -55 0
-1695 21 0
-1695 56 0
1695 -21 -56 0
-1696 22 0
-1696 57 0
1696 -22 -57 0
-1697 23 0
-1697 58 0
1697 -23 -58 0
-1698 24 0
-1698 59 0
1698 -24 -59 0
-1699 25 0
-1699 60 0
1699 -25 -60 0
-1700 29 0
-1700 63 0
1700 -29 -63 0
-1701 30 0
-1701 62 0
1701 -30 -62 0
-1702 31 0
-1702 61 0
1702 -31 -61 0
-1703 32 0
-1703 60 0
1703 -32 -60 0
-1704 33 0
-1704 79 0
1704 -33 -79 0
-1705 34 0
-1705 80 0
1705 -34 -80 0
-1706 35 0
-1706 81 0
1706 -35 -81 0
-1707 36 0
-1707 82 0
1707 -36 -82 0
-1708 37 0
-1708 83 0
1708 -37 -83 0
-1709 38 0
-1709 84 0
1709 -38 -84 0
-1710 39 0
-1710 64 0
1710 -39 -64 0
-1711 40 0
-1711 65 0
1711 -40 -65 0
-1712 41 0
-1712 66 0
1712 -41 -66 0
-1713 42 0
-1713 67 0
1713 -42 -67 0
-1714 43 0
-1714 68 0
1714 -43 -68 0
-1715 44 0
-1715 69 0
1715 -44 -69 0
-1716 45 0
-1716 70 0
1716 -45 -70 0
-1717 46 0
-1717 71 0
1717 -46 -71 0
-1718 47 0
-1718 72 0
1718 -47 -72 0
-1719 48 0
-1719 73 0
1719 -48 -73 0
-1720 49 0
-1720 74 0
1720 -49 -74 0
-1721 50 0
-1721 75 0
1721 -50 -75 0
-1722 51 0
-1722 76 0
1722 -51 -76 0
-1723 52 0
-1723 77 0
1723 -52 -77 0
-1724 53 0
-1724 78 0
1724 -53 -78 0
1 -1467 0
-1467 -1236 0
-1725 -1467 0
-1725 -1236 0
1725 1467 1236 0
1725 -997 0
-1726 1725 0
-1726 -997 0
1726 -1725 997 0
1726 -1676 0
-1727 1726 0
-1727 -1676 0
1727 -1726 1676 0
1727 -1677 0
-1728 1727 0
-1728 -1677 0
1728 -1727 1677 0
1728 -1678 0
-1729 1728 0
-1729 -1678 0
1729 -1728 1678 0
1729 -1679 0
-1730 1729 0
-1730 -1679 0
1730 -1729 1679 0
1730 -1680 0
-1731 1730 0
-1731 -1680 0
1731 -1730 1680 0
1731 -1681 0
-1732 1731 0
-1732 -1681 0
1732 -1731 1681 0
1732 -1682 0
-1733 1732 0
-1733 -1682 0
1733 -1732 1682 0
1733 -1572 0
-1734 1733 0
-1734 -1572 0
1734 -1733 1572 0
1734 -1344 0
-1735 1734 0
-1735 -1344 0
1735 -1734 1344 0
1735 -1108 0
-1736 1735 0
-1736 -1108 0
1736 -1735 1108 0
1736 -1683 0
-1737 1736 0
-1737 -1683 0
1737 -1736 1683 0
1737 -1684 0
-1738 1737 0
-1738 -1684 0
1738 -1737 1684 0
1738 -1685 0
-1739 1738 0
-1739 -1685 0
1739 -1738 1685 0
1739 -1686 0
-1740 1739 0
-1740 -1686 0
1740 -1739 1686 0
1740 -1687 0
-1741 1740 0
-1741 -1687 0
1741 -1740 1687 0
1741 -1688 0
-1742 1741 0
-1742 -1688 0
1742 -1741 1688 0
1742 -1689 0
-1743 1742 0
-1743 -1689 0
1743 -1742 1689 0
1743 -1690 0
-1744 1743 0
-1744 -1690 0
1744 -1743 1690 0
1744 -1691 0
-1745 1744 0
-1745 -1691 0
1745 -1744 1691 0
1745 -1692 0
-1746 1745 0
-1746 -1692 0
1746 -1745 1692 0
1746 -1002 0
-1747 1746 0
-1747 -1002 0
1747 -1746 1002 0
1747 -1240 0
-1748 1747 0
-1748 -1240 0
1748 -1747 1240 0
1748 -1470 0
-1749 1748 0
-1749 -1470 0
1749 -1748 1470 0
1749 -1693 0
-1750 1749 0
-1750 -1693 0
1750 -1749 1693 0
1750 -1694 0
-1751 1750 0
-1751 -1694 0
1751 -1750 1694 0
1751 -1695 0
-1752 1751 0
-1752 -1695 0
1752 -1751 1695 0
1752 -1696 0
-1753 1752 0
-1753 -1696 0
1753 -1752 1696 0
1753 -1697 0
-1754 1753 0
-1754 -1697 0
1754 -1753 1697 0
1754 -1698 0
-1755 1754 0
-1755 -1698 0
1755 -1754 1698 0
1755 -1699 0
-1756 1755 0
-1756 -1699 0
1756 -1755 1699 0
1756 -1132 0
-1757 1756 0
-1757 -1132 0
1757 -1756 1132 0
1757 -1365 0
-1758 1757 0
-1758 -1365 0
1758 -1757 1365 0
1758 -1590 0
-1759 1758 0
-1759 -1590 0
1759 -1758 1590 0
1759 -1700 0
-1760 1759 0
-1760 -1700 0
1760 -1759 1700 0
1760 -1701 0
-1761 1760 0
-1761 -1701 0
1761 -1760 1701 0
1761 -1702 0
-1762 1761 0
-1762 -1702 0
1762 -1761 1702 0
1762 -1703 0
-1763 1762 0
-1763 -1703 0
1763 -1762 1703 0
1763 -1704 0
-1764 1763 0
-1764 -1704 0
1764 -1763 1704 0
1764 -1705 0
-1765 1764 0
-1765 -1705 0
1765 -1764 1705 0
1765 -1706 0
-1766 1765 0
-1766 -1706 0
1766 -1765 1706 0
1766 -1707 0
-1767 1766 0
-1767 -1707 0
1767 -1766 1707 0
1767 -1708 0
-1768 1767 0
-1768 -1708 0
1768 -1767 1708 0
1768 -1709 0
-1769 1768 0
-1769 -1709 0
1769 -1768 1709 0
1769 -1710 0
-1770 1769 0
-1770 -1710 0
1770 -1769 1710 0
1770 -1711 0
-1771 1770 0
-1771 -1711 0
1771 -1770 1711 0
1771 -1712 0
-1772 1771 0
-1772 -1712 0
1772 -1771 1712 0
1772 -1713 0
-1773 1772 0
-1773 -1713 0
1773 -1772 1713 0
1773 -1714 0
-1774 1773 0
-1774 -1714 0
1774 -1773 1714 0
1774 -1715 0
-1775 1774 0
-1775 -1715 0
1775 -1774 1715 0
1775 -1716 0
-1776 1775 0
-1776 -1716 0
1776 -1775 1716 0
1776 -1717 0
-1777 1776 0
-1777 -1717 0
1777 -1776 1717 0
1777 -1718 0
-1778 1777 0
-1778 -1718 0
1778 -1777 1718 0
1778 -1719 0
-1779 1778 0
-1779 -1719 0
1779 -1778 1719 0
1779 -1720 0
-1780 1779 0
-1780 -1720 0
1780 -1779 1720 0
1780 -1721 0
-1781 1780 0
-1781 -1721 0
1781 -1780 1721 0
1781 -1722 0
-1782 1781 0
-1782 -1722 0
1782 -1781 1722 0
1782 -1723 0
-1783 1782 0
-1783 -1723 0
1783 -1782 1723 0
1783 -1724 0
-1784 1783 0
-1784 -1724 0
1784 -1783 1724 0
-1785 5 0
-1785 15 0
1785 -5 -15 0
-1786 6 0
-1786 14 0
1786 -6 -14 0
-1787 7 0
-1787 13 0
1787 -7 -13 0
-1788 8 0
-1788 12 0
1788 -8 -12 0
-1789 9 0
-1789 32 0
1789 -9 -32 0
-1790 10 0
-1790 31 0
1790 -10 -31 0
-1791 11 0
-1791 30 0
1791 -11 -30 0
-1792 7 0
-1792 25 0
1792 -7 -25 0
-1793 6 0
-1793 24 0
1793 -6 -24 0
-1794 5 0
-1794 23 0
1794 -5 -23 0
-1795 4 0
-1795 22 0
1795 -4 -22 0
-1796 3 0
-1796 21 0
1796 -3 -21 0
-1797 2 0
-1797 20 0
1797 -2 -20 0
-1798 12 0
-1798 60 0
1798 -12 -60 0
-1799 13 0
-1799 59 0
1799 -13 -59 0
-1800 14 0
-1800 58 0
1800 -14 -58 0
-1801 15 0
-1801 57 0
1801 -15 -57 0
-1802 20 0
-1802 54 0
1802 -20 -54 0
-1803 21 0
-1803 55 0
1803 -21 -55 0
-1804 22 0
-1804 56 0
1804 -22 -56 0
-1805 23 0
-1805 57 0
1805 -23 -57 0
-1806 24 0
-1806 58 0
1806 -24 -58 0
-1807 25 0
-1807 59 0
1807 -25 -59 0
-1808 30 0
-1808 63 0
1808 -30 -63 0
-1809 31 0
-1809 62 0
1809 -31 -62 0
-1810 32 0
-1810 61 0
1810 -32 -61 0
-1811 33 0
-1811 78 0
1811 -33 -78 0
-1812 34 0
-1812 79 0
1812 -34 -79 0
-1813 35 0
-1813 80 0
1813 -35 -80 0
-1814 36 0
-1814 81 0
1814 -36 -81 0
-1815 37 0
-1815 82 0
1815 -37 -82 0
-1816 38 0
-1816 83 0
1816 -38 -83 0
-1817 39 0
-1817 84 0
1817 -39 -84 0
-1818 40 0
-1818 64 0
1818 -40 -64 0
-1819 41 0
-1819 65 0
1819 -41 -65 0
-1820 42 0
-1820 66 0
1820 -42 -66 0
-1821 43 0
-1821 67 0
1821 -43 -67 0
-1822 44 0
-1822 68 0
1822 -44 -68 0
-1823 45 0
-1823 69 0
1823 -45 -69 0
-1824 46 0
-1824 70 0
1824 -46 -70 0
-1825 47 0
-1825 71 0
1825 -47 -71 0
-1826 48 0
-1826 72 0
1826 -48 -72 0
-1827 49 0
-1827 73 0
1827 -49 -73 0
-1828 50 0
-1828 74 0
1828 -50 -74 0
-1829 51 0
-1829 75 0
1829 -51 -75 0
-1830 52 0
-1830 76 0
1830 -52 -76 0
-1831 53 0
-1831 77 0
1831 -53 -77 0
1 -1579 0
-1579 -1352 0
-1832 -1579 0
-1832 -1352 0
1832 1579 1352 0
1832 -1117 0
-1833 1832 0
-1833 -1117 0
1833 -1832 1117 0
1833 -1785 0
-1834 1833 0
-1834 -1785 0
1834 -1833 1785 0
1834 -1786 0
-1835 1834 0
-1835 -1786 0
1835 -1834 1786 0
1835 -1787 0
-1836 1835 0
-1836 -1787 0
1836 -1835 1787 0
1836 -1788 0
-1837 1836 0
-1837 -1788 0
1837 -1836 1788 0
1837 -1789 0
-1838 1837 0
-1838 -1789 0
1838 -1837 1789 0
1838 -1790 0
-1839 1838 0
-1839 -1790 0
1839 -1838 1790 0
1839 -1791 0
-1840 1839 0
-1840 -1791 0
1840 -1839 1791 0
1840 -1682 0
-1841 1840 0
-1841 -1682 0
1841 -1840 1682 0
1841 -1458 0
-1842 1841 0
-1842 -1458 0
1842 -1841 1458 0
1842 -1226 0
-1843 1842 0
-1843 -1226 0
1843 -1842 1226 0
1843 -986 0
-1844 1843 0
-1844 -986 0
1844 -1843 986 0
1844 -1792 0
-1845 1844 0
-1845 -1792 0
1845 -1844 1792 0
1845 -1793 0
-1846 1845 0
-1846 -1793 0
1846 -1845 1793 0
1846 -1794 0
-1847 1846 0
-1847 -1794 0
1847 -1846 1794 0
1847 -1795 0
-1848 1847 0
-1848 -1795 0
1848 -1847 1795 0
1848 -1796 0
-1849 1848 0
-1849 -1796 0
1849 -1848 1796 0
1849 -1797 0
-1850 1849 0
-1850 -1797 0
1850 -1849 1797 0
1850 -1798 0
-1851 1850 0
-1851 -1798 0
1851 -1850 1798 0
1851 -1799 0
-1852 1851 0
-1852 -1799 0
1852 -1851 1799 0
1852 -1800 0
-1853 1852 0
-1853 -1800 0
1853 -1852 1800 0
1853 -1801 0
-1854 1853 0
-1854 -1801 0
1854 -1853 1801 0
1854 -1123 0
-1855 1854 0
-1855 -1123 0
1855 -1854 1123 0
1855 -1357 0
-1856 1855 0
-1856 -1357 0
1856 -1855 1357 0
1856 -1583 0
-1857 1856 0
-1857 -1583 0
1857 -1856 1583 0
1857 -1802 0
-1858 1857 0
-1858 -1802 0
1858 -1857 1802 0
1858 -1803 0
-1859 1858 0
-1859 -1803 0
1859 -1858 1803 0
1859 -1804 0
-1860 1859 0
-1860 -1804 0
1860 -1859 1804 0
1860 -1805 0
-1861 1860 0
-1861 -1805 0
1861 -1860 1805 0
1861 -1806 0
-1862 1861 0
-1862 -1806 0
1862 -1861 1806 0
1862 -1807 0
-1863 1862 0
-1863 -1807 0
1863 -1862 1807 0
1863 -1013 0
-1864 1863 0
-1864 -1013 0
1864 -1863 1013 0
1864 -1250 0
-1865 1864 0
-1865 -1250 0
1865 -1864 1250 0
1865 -1479 0
-1866 1865 0
-1866 -1479 0
1866 -1865 1479 0
1866 -1700 0
-1867 1866 0
-1867 -1700 0
1867 -1866 1700 0
1867 -1808 0
-1868 1867 0
-1868 -1808 0
1868 -1867 1808 0
1868 -1809 0
-1869 1868 0
-1869 -1809 0
1869 -1868 1809 0
1869 -1810 0
-1870 1869 0
-1870 -1810 0
1870 -1869 1810 0
1870 -1811 0
-1871 1870 0
-1871 -1811 0
1871 -1870 1811 0
1871 -1812 0
-1872 1871 0
-1872 -1812 0
1872 -1871 1812 0
1872 -1813 0
-1873 1872 0
-1873 -1813 0
1873 -1872 1813 0
1873 -1814 0
-1874 1873 0
-1874 -1814 0
1874 -1873 1814 0
1874 -1815 0
-1875 1874 0
-1875 -1815 0
1875 -1874 1815 0
1875 -1816 0
-1876 1875 0
-1876 -1816 0
1876 -1875 1816 0
1876 -1817 0
-1877 1876 0
-1877 -1817 0
1877 -1876 1817 0
1877 -1818 0
-1878 1877 0
-1878 -1818 0
1878 -1877 1818 0
1878 -1819 0
-1879 1878 0
-1879 -1819 0
1879 -1878 1819 0
1879 -1820 0
-1880 1879 0
-1880 -1820 0
1880 -1879 1820 0
1880 -1821 0
-1881 1880 0
-1881 -1821 0
1881 -1880 1821 0
1881 -1822 0
-1882 1881 0
-1882 -1822 0
1882 -1881 1822 0
1882 -1823 0
-1883 1882 0
-1883 -1823 0
1883 -1882 1823 0
1883 -1824 0
-1884 1883 0
-1884 -1824 0
1884 -1883 1824 0
1884 -1825 0
-1885 1884 0
-1885 -1825 0
1885 -1884 1825 0
1885 -1826 0
-1886 1885 0
-1886 -1826 0
1886 -1885 1826 0
1886 -1827 0
-1887 1886 0
-1887 -1827 0
1887 -1886 1827 0
1887 -1828 0
-1888 1887 0
-1888 -1828 0
1888 -1887 1828 0
1888 -1829 0
-1889 1888 0
-1889 -1829 0
1889 -1888 1829 0
1889 -1830 0
-1890 1889 0
-1890 -1830 0
1890 -1889 1830 0
1890 -1831 0
-1891 1890 0
-1891 -1831 0
1891 -1890 1831 0
-1892 6 0
-1892 15 0
1892 -6 -15 0
-1893 7 0
-1893 14 0
1893 -7 -14 0
-1894 8 0
-1894 13 0
1894 -8 -13 0
-1895 9 0
-1895 12 0
1895 -9 -12 0
-1896 10 0
-1896 32 0
1896 -10 -32 0
-1897 11 0
-1897 31 0
1897 -11 -31 0
-1898 7 0
-1898 26 0
1898 -7 -26 0
-1899 6 0
-1899 25 0
1899 -6 -25 0
-1900 5 0
-1900 24 0
1900 -5 -24 0
-1901 4 0
-1901 23 0
1901 -4 -23 0
-1902 3 0
-1902 22 0
1902 -3 -22 0
-1903 2 0
-1903 21 0
1903 -2 -21 0
-1904 12 0
-1904 61 0
1904 -12 -61 0
-1905 13 0
-1905 60 0
1905 -13 -60 0
-1906 14 0
-1906 59 0
1906 -14 -59 0
-1907 15 0
-1907 58 0
1907 -15 -58 0
-1908 21 0
-1908 54 0
1908 -21 -54 0
-1909 22 0
-1909 55 0
1909 -22 -55 0
-1910 23 0
-1910 56 0
1910 -23 -56 0
-1911 24 0
-1911 57 0
1911 -24 -57 0
-1912 25 0
-1912 58 0
1912 -25 -58 0
-1913 26 0
-1913 59 0
1913 -26 -59 0
-1914 31 0
-1914 63 0
1914 -31 -63 0
-1915 32 0
-1915 62 0
1915 -32 -62 0
-1916 33 0
-1916 77 0
1916 -33 -77 0
-1917 34 0
-1917 78 0
1917 -34 -78 0
-1918 35 0
-1918 79 0
1918 -35 -79 0
-1919 36 0
-1919 80 0
1919 -36 -80 0
-1920 37 0
-1920 81 0
1920 -37 -81 0
-1921 38 0
-1921 82 0
1921 -38 -82 0
-1922 39 0
-1922 83 0
1922 -39 -83 0
-1923 40 0
-1923 84 0
1923 -40 -84 0
-1924 41 0
-1924 64 0
1924 -41 -64 0
-1925 42 0
-1925 65 0
1925 -42 -65 0
-1926 43 0
-1926 66 0
1926 -43 -66 0
-1927 44 0
-1927 67 0
1927 -44 -67 0
-1928 45 0
-1928 68 0
1928 -45 -68 0
-1929 46 0
-1929 69 0
1929 -46 -69 0
-1930 47 0
-1930 70 0
1930 -47 -70 0
-1931 48 0
-1931 71 0
1931 -48 -71 0
-1932 49 0
-1932 72 0
1932 -49 -72 0
-1933 50 0
-1933 73 0
1933 -50 -73 0
-1934 51 0
-1934 74 0
1934 -51 -74 0
-1935 52 0
-1935 75 0
1935 -52 -75 0
-1936 53 0
-1936 76 0
1936 -53 -76 0
1 -1689 0
-1689 -1466 0
-1937 -1689 0
-1937 -1466 0
1937 1689 1466 0
1937 -1235 0
-1938 1937 0
-1938 -1235 0
1938 -1937 1235 0
1938 -996 0
-1939 1938 0
-1939 -996 0
1939 -1938 996 0
1939 -1892 0
-1940 1939 0
-1940 -1892 0
1940 -1939 1892 0
1940 -1893 0
-1941 1940 0
-1941 -1893 0
1941 -1940 1893 0
1941 -1894 0
-1942 1941 0
-1942 -1894 0
1942 -1941 1894 0
1942 -1895 0
-1943 1942 0
-1943 -1895 0
1943 -1942 1895 0
1943 -1896 0
-1944 1943 0
-1944 -1896 0
1944 -1943 1896 0
1944 -1897 0
-1945 1944 0
-1945 -1897 0
1945 -1944 1897 0
1945 -1791 0
-1946 1945 0
-1946 -1791 0
1946 -1945 1791 0
1946 -1571 0
-1947 1946 0
-1947 -1571 0
1947 -1946 1571 0
1947 -1343 0
-1948 1947 0
-1948 -1343 0
1948 -1947 1343 0
1948 -1107 0
-1949 1948 0
-1949 -1107 0
1949 -1948 1107 0
1949 -1898 0
-1950 1949 0
-1950 -1898 0
1950 -1949 1898 0
1950 -1899 0
-1951 1950 0
-1951 -1899 0
1951 -1950 1899 0
1951 -1900 0
-1952 1951 0
-1952 -1900 0
1952 -1951 1900 0
1952 -1901 0
-1953 1952 0
-1953 -1901 0
1953 -1952 1901 0
1953 -1902 0
-1954 1953 0
-1954 -1902 0
1954 -1953 1902 0
1954 -1903 0
-1955 1954 0
-1955 -1903 0
1955 -1954 1903 0
1955 -1904 0
-1956 1955 0
-1956 -1904 0
1956 -1955 1904 0
1956 -1905 0
-1957 1956 0
-1957 -1905 0
1957 -1956 1905 0
1957 -1906 0
-1958 1957 0
-1958 -1906 0
1958 -1957 1906 0
1958 -1907 0
-1959 1958 0
-1959 -1907 0
1959 -1958 1907 0
1959 -1003 0
-1960 1959 0
-1960 -1003 0
1960 -1959 1003 0
1960 -1241 0
-1961 1960 0
-1961 -1241 0
1961 -1960 1241 0
1961 -1471 0
-1962 1961 0
-1962 -1471 0
1962 -1961 1471 0
1962 -1693 0
-1963 1962 0
-1963 -1693 0
1963 -1962 1693 0
1963 -1908 0
-1964 1963 0
-1964 -1908 0
1964 -1963 1908 0
1964 -1909 0
-1965 1964 0
-1965 -1909 0
1965 -1964 1909 0
1965 -1910 0
-1966 1965 0
-1966 -1910 0
1966 -1965 1910 0
1966 -1911 0
-1967 1966 0
-1967 -1911 0
1967 -1966 1911 0
1967 -1912 0
-1968 1967 0
-1968 -1912 0
1968 -1967 1912 0
1968 -1913 0
-1969 1968 0
-1969 -1913 0
1969 -1968 1913 0
1969 -1133 0
-1970 1969 0
-1970 -1133 0
1970 -1969 1133 0
1970 -1366 0
-1971 1970 0
-1971 -1366 0
1971 -1970 1366 0
1971 -1591 0
-1972 1971 0
-1972 -1591 0
1972 -1971 1591 0
1972 -1808 0
-1973 1972 0
-1973 -1808 0
1973 -1972 1808 0
1973 -1914 0
-1974 1973 0
-1974 -1914 0
1974 -1973 1914 0
1974 -1915 0
-1975 1974 0
-1975 -1915 0
1975 -1974 1915 0
1975 -1916 0
-1976 1975 0
-1976 -1916 0
1976 -1975 1916 0
1976 -1917 0
-1977 1976 0
-1977 -1917 0
1977 -1976 1917 0
1977 -1918 0
-1978 1977 0
-1978 -1918 0
1978 -1977 1918 0
1978 -1919 0
-1979 1978 0
-1979 -1919 0
1979 -1978 1919 0
1979 -1920 0
-1980 1979 0
-1980 -1920 0
1980 -1979 1920 0
1980 -1921 0
-1981 1980 0
-1981 -1921 0
1981 -1980 1921 0
1981 -1922 0
-1982 1981 0
-1982 -1922 0
1982 -1981 1922 0
1982 -1923 0
-1983 1982 0
-1983 -1923 0
1983 -1982 1923 0
1983 -1924 0
-1984 1983 0
-1984 -1924 0
1984 -1983 1924 0
1984 -1925 0
-1985 1984 0
-1985 -1925 0
1985 -1984 1925 0
1985 -1926 0
-1986 1985 0
-1986 -1926 0
1986 -1985 1926 0
1986 -1927 0
-1987 1986 0
-1987 -1927 0
1987 -1986 1927 0
1987 -1928 0
-1988 1987 0
-1988 -1928 0
1988 -1987 1928 0
1988 -1929 0
-1989 1988 0
-1989 -1929 0
1989 -1988 1929 0
1989 -1930 0
-1990 1989 0
-1990 -1930 0
1990 -1989 1930 0
1990 -1931 0
-1991 1990 0
-1991 -1931 0
1991 -1990 1931 0
1991 -1932 0
-1992 1991 0
-1992 -1932 0
1992 -1991 1932 0
1992 -1933 0
-1993 1992 0
-1993 -1933 0
1993 -1992 1933 0
1993 -1934 0
-1994 1993 0
-1994 -1934 0
1994 -1993 1934 0
1994 -1935 0
-1995 1994 0
-1995 -1935 0
1995 -1994 1935 0
1995 -1936 0
-1996 1995 0
-1996 -1936 0
1996 -1995 1936 0
-1997 6 0
-1997 16 0
1997 -6 -16 0
-1998 7 0
-1998 15 0
1998 -7 -15 0
-1999 8 0
-1999 14 0
1999 -8 -14 0
-2000 9 0
-2000 13 0
2000 -9 -13 0
-2001 10 0
-2001 12 0
2001 -10 -12 0
-2002 11 0
-2002 32 0
2002 -11 -32 0
-2003 6 0
-2003 26 0
2003 -6 -26 0
-2004 5 0
-2004 25 0
2004 -5 -25 0
-2005 4 0
-2005 24 0
2005 -4 -24 0
-2006 3 0
-2006 23 0
2006 -3 -23 0
-2007 2 0
-2007 22 0
2007 -2 -22 0
-2008 12 0
-2008 62 0
2008 -12 -62 0
-2009 13 0
-2009 61 0
2009 -13 -61 0
-2010 14 0
-2010 60 0
2010 -14 -60 0
-2011 15 0
-2011 59 0
2011 -15 -59 0
-2012 16 0
-2012 58 0
2012 -16 -58 0
-2013 22 0
-2013 54 0
2013 -22 -54 0
-2014 23 0
-2014 55 0
2014 -23 -55 0
-2015 24 0
-2015 56 0
2015 -24 -56 0
-2016 25 0
-2016 57 0
2016 -25 -57 0
-2017 26 0
-2017 58 0
2017 -26 -58 0
-2018 32 0
-2018 63 0
2018 -32 -63 0
-2019 33 0
-2019 76 0
2019 -33 -76 0
-2020 34 0
-2020 77 0
2020 -34 -77 0
-2021 35 0
-2021 78 0
2021 -35 -78 0
-2022 36 0
-2022 79 0
2022 -36 -79 0
-2023 37 0
-2023 80 0
2023 -37 -80 0
-2024 38 0
-2024 81 0
2024 -38 -81 0
-2025 39 0
-2025 82 0
2025 -39 -82 0
-2026 40 0
-2026 83 0
2026 -40 -83 0
-2027 41 0
-2027 84 0
2027 -41 -84 0
-2028 42 0
-2028 64 0
2028 -42 -64 0
-2029 43 0
-2029 65 0
2029 -43 -65 0
-2030 44 0
-2030 66 0
2030 -44 -66 0
-2031 45 0
-2031 67 0
2031 -45 -67 0
-2032 46 0
-2032 68 0
2032 -46 -68 0
-2033 47 0
-2033 69 0
2033 -47 -69 0
-2034 48 0
-2034 70 0
2034 -48 -70 0
-2035 49 0
-2035 71 0
2035 -49 -71 0
-2036 50 0
-2036 72 0
2036 -50 -72 0
-2037 51 0
-2037 73 0
2037 -51 -73 0
-2038 52 0
-2038 74 0
2038 -52 -74 0
-2039 53 0
-2039 75 0
2039 -53 -75 0
1 -1797 0
-1797 -1578 0
-2040 -1797 0
-2040 -1578 0
2040 1797 1578 0
2040 -1351 0
-2041 2040 0
-2041 -1351 0
2041 -2040 1351 0
2041 -1116 0
-2042 2041 0
-2042 -1116 0
2042 -2041 1116 0
2042 -1997 0
-2043 2042 0
-2043 -1997 0
2043 -2042 1997 0
2043 -1998 0
-2044 2043 0
-2044 -1998 0
2044 -2043 1998 0
2044 -1999 0
-2045 2044 0
-2045 -1999 0
2045 -2044 1999 0
2045 -2000 0
-2046 2045 0
-2046 -2000 0
2046 -2045 2000 0
2046 -2001 0
-2047 2046 0
-2047 -2001 0
2047 -2046 2001 0
2047 -2002 0
-2048 2047 0
-2048 -2002 0
2048 -2047 2002 0
2048 -1897 0
-2049 2048 0
-2049 -1897 0
2049 -2048 1897 0
2049 -1681 0
-2050 2049 0
-2050 -1681 0
2050 -2049 1681 0
2050 -1457 0
-2051 2050 0
-2051 -1457 0
2051 -2050 1457 0
2051 -1225 0
-2052 2051 0
-2052 -1225 0
2052 -2051 1225 0
2052 -985 0
-2053 2052 0
-2053 -985 0
2053 -2052 985 0
2053 -2003 0
-2054 2053 0
-2054 -2003 0
2054 -2053 2003 0
2054 -2004 0
-2055 2054 0
-2055 -2004 0
2055 -2054 2004 0
2055 -2005 0
-2056 2055 0
-2056 -2005 0
2056 -2055 2005 0
2056 -2006 0
-2057 2056 0
-2057 -2006 0
2057 -2056 2006 0
2057 -2007 0
-2058 2057 0
-2058 -2007 0
2058 -2057 2007 0
2058 -2008 0
-2059 2058 0
-2059 -2008 0
2059 -2058 2008 0
2059 -2009 0
-2060 2059 0
-2060 -2009 0
2060 -2059 2009 0
2060 -2010 0
-2061 2060 0
-2061 -2010 0
2061 -2060 2010 0
2061 -2011 0
-2062 2061 0
-2062 -2011 0
2062 -2061 2011 0
2062 -2012 0
-2063 2062 0
-2063 -2012 0
2063 -2062 2012 0
2063 -1124 0
-2064 2063 0
-2064 -1124 0
2064 -2063 1124 0
2064 -1358 0
-2065 2064 0
-2065 -1358 0
2065 -2064 1358 0
2065 -1584 0
-2066 2065 0
-2066 -1584 0
2066 -2065 1584 0
2066 -1802 0
-2067 2066 0
-2067 -1802 0
2067 -2066 1802 0
2067 -2013 0
-2068 2067 0
-2068 -2013 0
2068 -2067 2013 0
2068 -2014 0
-2069 2068 0
-2069 -2014 0
2069 -2068 2014 0
2069 -2015 0
-2070 2069 0
-2070 -2015 0
2070 -2069 2015 0
2070 -2016 0
-2071 2070 0
-2071 -2016 0
2071 -2070 2016 0
2071 -2017 0
-2072 2071 0
-2072 -2017 0
2072 -2071 2017 0
2072 -1014 0
-2073 2072 0
-2073 -1014 0
2073 -2072 1014 0
2073 -1251 0
-2074 2073 0
-2074 -1251 0
2074 -2073 1251 0
2074 -1480 0
-2075 2074 0
-2075 -1480 0
2075 -2074 1480 0
2075 -1701 0
-2076 2075 0
-2076 -1701 0
2076 -2075 1701 0
2076 -1914 0
-2077 2076 0
-2077 -1914 0
2077 -2076 1914 0
2077 -2018 0
-2078 2077 0
-2078 -2018 0
2078 -2077 2018 0
2078 -2019 0
-2079 2078 0
-2079 -2019 0
2079 -2078 2019 0
2079 -2020 0
-2080 2079 0
-2080 -2020 0
2080 -2079 2020 0
2080 -2021 0
-2081 2080 0
-2081 -2021 0
2081 -2080 2021 0
2081 -2022 0
-2082 2081 0
-2082 -2022 0
2082 -2081 2022 0
2082 -2023 0
-2083 2082 0
-2083 -2023 0
2083 -2082 2023 0
2083 -2024 0
-2084 2083 0
-2084 -2024 0
2084 -2083 2024 0
2084 -2025 0
-2085 2084 0
-2085 -2025 0
2085 -2084 2025 0
2085 -2026 0
-2086 2085 0
-2086 -2026 0
2086 -2085 2026 0
2086 -2027 0
-2087 2086 0
-2087 -2027 0
2087 -2086 2027 0
2087 -2028 0
-2088 2087 0
-2088 -2028 0
2088 -2087 2028 0
2088 -2029 0
-2089 2088 0
-2089 -2029 0
2089 -2088 2029 0
2089 -2030 0
-2090 2089 0
-2090 -2030 0
2090 -2089 2030 0
2090 -2031 0
-2091 2090 0
-2091 -2031 0
2091 -2090 2031 0
2091 -2032 0
-2092 2091 0
-2092 -2032 0
2092 -2091 2032 0
2092 -2033 0
-2093 2092 0
-2093 -2033 0
2093 -2092 2033 0
2093 -2034 0
-2094 2093 0
-2094 -2034 0
2094 -2093 2034 0
2094 -2035 0
-2095 2094 0
-2095 -2035 0
2095 -2094 2035 0
2095 -2036 0
-2096 2095 0
-2096 -2036 0
2096 -2095 2036 0
2096 -2037 0
-2097 2096 0
-2097 -2037 0
2097 -2096 2037 0
2097 -2038 0
-2098 2097 0
-2098 -2038 0
2098 -2097 2038 0
2098 -2039 0
-2099 2098 0
-2099 -2039 0
2099 -2098 2039 0
-2100 7 0
-2100 16 0
2100 -7 -16 0
-2101 8 0
-2101 15 0
2101 -8 -15 0
-2102 9 0
-2102 14 0
2102 -9 -14 0
-2103 10 0
-2103 13 0
2103 -10 -13 0
-2104 11 0
-2104 12 0
2104 -11 -12 0
-2105 6 0
-2105 27 0
2105 -6 -27 0
-2106 5 0
-2106 26 0
2106 -5 -26 0
-2107 4 0
-2107 25 0
2107 -4 -25 0
-2108 3 0
-2108 24 0
2108 -3 -24 0
-2109 2 0
-2109 23 0
2109 -2 -23 0
-2110 12 0
-2110 63 0
2110 -12 -63 0
-2111 13 0
-2111 62 0
2111 -13 -62 0
-2112 14 0
-2112 61 0
2112 -14 -61 0
-2113 15 0
-2113 60 0
2113 -15 -60 0
-2114 16 0
-2114 59 0
2114 -16 -59 0
-2115 23 0
-2115 54 0
2115 -23 -54 0
-2116 24 0
-2116 55 0
2116 -24 -55 0
-2117 25 0
-2117 56 0
2117 -25 -56 0
-2118 26 0
-2118 57 0
2118 -26 -57 0
-2119 27 0
-2119 58 0
2119 -27 -58 0
-2120 33 0
-2120 75 0
2120 -33 -75 0
-2121 34 0
-2121 76 0
2121 -34 -76 0
-2122 35 0
-2122 77 0
2122 -35 -77 0
-2123 36 0
-2123 78 0
2123 -36 -78 0
-2124 37 0
-2124 79 0
2124 -37 -79 0
-2125 38 0
-2125 80 0
2125 -38 -80 0
-2126 39 0
-2126 81 0
2126 -39 -81 0
-2127 40 0
-2127 82 0
2127 -40 -82 0
-2128 41 0
-2128 83 0
2128 -41 -83 0
-2129 42 0
-2129 84 0
2129 -42 -84 0
-2130 43 0
-2130 64 0
2130 -43 -64 0
-2131 44 0
-2131 65 0
2131 -44 -65 0
-2132 45 0
-2132 66 0
2132 -45 -66 0
-2133 46 0
-2133 67 0
2133 -46 -67 0
-2134 47 0
-2134 68 0
2134 -47 -68 0
-2135 48 0
-2135 69 0
2135 -48 -69 0
-2136 49 0
-2136 70 0
2136 -49 -70 0
-2137 50 0
-2137 71 0
2137 -50 -71 0
-2138 51 0
-2138 72 0
2138 -51 -72 0
-2139 52 0
-2139 73 0
2139 -52 -73 0
-2140 53 0
-2140 74 0
2140 -53 -74 0
1 -1903 0
-1903 -1688 0
-2141 -1903 0
-2141 -1688 0
2141 1903 1688 0
2141 -1465 0
-2142 2141 0
-2142 -1465 0
2142 -2141 1465 0
2142 -1234 0
-2143 2142 0
-2143 -1234 0
2143 -2142 1234 0
2143 -995 0
-2144 2143 0
-2144 -995 0
2144 -2143 995 0
2144 -2100 0
-2145 2144 0
-2145 -2100 0
2145 -2144 2100 0
2145 -2101 0
-2146 2145 0
-2146 -2101 0
2146 -2145 2101 0
2146 -2102 0
-2147 2146 0
-2147 -2102 0
2147 -2146 2102 0
2147 -2103 0
-2148 2147 0
-2148 -2103 0
2148 -2147 2103 0
2148 -2104 0
-2149 2148 0
-2149 -2104 0
2149 -2148 2104 0
2149 -2002 0
-2150 2149 0
-2150 -2002 0
2150 -2149 2002 0
2150 -1790 0
-2151 2150 0
-2151 -1790 0
2151 -2150 1790 0
2151 -1570 0
-2152 2151 0
-2152 -1570 0
2152 -2151 1570 0
2152 -1342 0
-2153 2152 0
-2153 -1342 0
2153 -2152 1342 0
2153 -1106 0
-2154 2153 0
-2154 -1106 0
2154 -2153 1106 0
2154 -2105 0
-2155 2154 0
-2155 -2105 0
2155 -2154 2105 0
2155 -2106 0
-2156 2155 0
-2156 -2106 0
2156 -2155 2106 0
2156 -2107 0
-2157 2156 0
-2157 -2107 0
2157 -2156 2107 0
2157 -2108 0
-2158 2157 0
-2158 -2108 0
2158 -2157 2108 0
2158 -2109 0
-2159 2158 0
-2159 -2109 0
2159 -2158 2109 0
2159 -2110 0
-2160 2159 0
-2160 -2110 0
2160 -2159 2110 0
2160 -2111 0
-2161 2160 0
-2161 -2111 0
2161 -2160 2111 0
2161 -2112 0
-2162 2161 0
-2162 -2112 0
2162 -2161 2112 0
2162 -2113 0
-2163 2162 0
-2163 -2113 0
2163 -2162 2113 0
2163 -2114 0
-2164 2163 0
-2164 -2114 0
2164 -2163 2114 0
2164 -1004 0
-2165 2164 0
-2165 -1004 0
2165 -2164 1004 0
2165 -1242 0
-2166 2165 0
-2166 -1242 0
2166 -2165 1242 0
2166 -1472 0
-2167 2166 0
-2167 -1472 0
2167 -2166 1472 0
2167 -1694 0
-2168 2167 0
-2168 -1694 0
2168 -2167 1694 0
2168 -1908 0
-2169 2168 0
-2169 -1908 0
2169 -2168 1908 0
2169 -2115 0
-2170 2169 0
-2170 -2115 0
2170 -2169 2115 0
2170 -2116 0
-2171 2170 0
-2171 -2116 0
2171 -2170 2116 0
2171 -2117 0
-2172 2171 0
-2172 -2117 0
2172 -2171 2117 0
2172 -2118 0
-2173 2172 0
-2173 -2118 0
2173 -2172 2118 0
2173 -2119 0
-2174 2173 0
-2174 -2119 0
2174 -2173 2119 0
2174 -1134 0
-2175 2174 0
-2175 -1134 0
2175 -2174 1134 0
2175 -1367 0
-2176 2175 0
-2176 -1367 0
2176 -2175 1367 0
2176 -1592 0
-2177 2176 0
-2177 -1592 0
2177 -2176 1592 0
2177 -1809 0
-2178 2177 0
-2178 -1809 0
2178 -2177 1809 0
2178 -2018 0
-2179 2178 0
-2179 -2018 0
2179 -2178 2018 0
2179 -2120 0
-2180 2179 0
-2180 -2120 0
2180 -2179 2120 0
2180 -2121 0
-2181 2180 0
-2181 -2121 0
2181 -2180 2121 0
2181 -2122 0
-2182 2181 0
-2182 -2122 0
2182 -2181 2122 0
2182 -2123 0
-2183 2182 0
-2183 -2123 0
2183 -2182 2123 0
2183 -2124 0
-2184 2183 0
-2184 -2124 0
2184 -2183 2124 0
2184 -2125 0
-2185 2184 0
-2185 -2125 0
2185 -2184 2125 0
2185 -2126 0
-2186 2185 0
-2186 -2126 0
2186 -2185 2126 0
2186 -2127 0
-2187 2186 0
-2187 -2127 0
2187 -2186 2127 0
2187 -2128 0
-2188 2187 0
-2188 -2128 0
2188 -2187 2128 0
2188 -2129 0
-2189 2188 0
-2189 -2129 0
2189 -2188 2129 0
2189 -2130 0
-2190 2189 0
-2190 -2130 0
2190 -2189 2130 0
2190 -2131 0
-2191 2190 0
-2191 -2131 0
2191 -2190 2131 0
2191 -2132 0
-2192 2191 0
-2192 -2132 0
2192 -2191 2132 0
2192 -2133 0
-2193 2192 0
-2193 -2133 0
2193 -2192 2133 0
2193 -2134 0
-2194 2193 0
-2194 -2134 0
2194 -2193 2134 0
2194 -2135 0
-2195 2194 0
-2195 -2135 0
2195 -2194 2135 0
2195 -2136 0
-2196 2195 0
-2196 -2136 0
2196 -2195 2136 0
2196 -2137 0
-2197 2196 0
-2197 -2137 0
2197 -2196 2137 0
2197 -2138 0
-2198 2197 0
-2198 -2138 0
2198 -2197 2138 0
2198 -2139 0
-2199 2198 0
-2199 -2139 0
2199 -2198 2139 0
2199 -2140 0
-2200 2199 0
-2200 -2140 0
2200 -2199 2140 0
-2201 7 0
-2201 17 0
2201 -7 -17 0
-2202 8 0
-2202 16 0
2202 -8 -16 0
-2203 9 0
-2203 15 0
2203 -9 -15 0
-2204 10 0
-2204 14 0
2204 -10 -14 0
-2205 11 0
-2205 13 0
2205 -11 -13 0
-2206 5 0
-2206 27 0
2206 -5 -27 0
-2207 4 0
-2207 26 0
2207 -4 -26 0
-2208 3 0
-2208 25 0
2208 -3 -25 0
-2209 2 0
-2209 24 0
2209 -2 -24 0
-2210 13 0
-2210 63 0
2210 -13 -63 0
-2211 14 0
-2211 62 0
2211 -14 -62 0
-2212 15 0
-2212 61 0
2212 -15 -61 0
-2213 16 0
-2213 60 0
2213 -16 -60 0
-2214 17 0
-2214 59 0
2214 -17 -59 0
-2215 24 0
-2215 54 0
2215 -24 -54 0
-2216 25 0
-2216 55 0
2216 -25 -55 0
-2217 26 0
-2217 56 0
2217 -26 -56 0
-2218 27 0
-2218 57 0
2218 -27 -57 0
-2219 33 0
-2219 74 0
2219 -33 -74 0
-2220 34 0
-2220 75 0
2220 -34 -75 0
-2221 35 0
-2221 76 0
2221 -35 -76 0
-2222 36 0
-2222 77 0
2222 -36 -77 0
-2223 37 0
-2223 78 0
2223 -37 -78 0
-2224 38 0
-2224 79 0
2224 -38 -79 0
-2225 39 0
-2225 80 0
2225 -39 -80 0
-2226 40 0
-2226 81 0
2226 -40 -81 0
-2227 41 0
-2227 82 0
2227 -41 -82 0
-2228 42 0
-2228 83 0
2228 -42 -83 0
-2229 43 0
-2229 84 0
2229 -43 -84 0
-2230 44 0
-2230 64 0
2230 -44 -64 0
-2231 45 0
-2231 65 0
2231 -45 -65 0
-2232 46 0
-2232 66 0
2232 -46 -66 0
-2233 47 0
-2233 67 0
2233 -47 -67 0
-2234 48 0
-2234 68 0
2234 -48 -68 0
-2235 49 0
-2235 69 0
2235 -49 -69 0
-2236 50 0
-2236 70 0
2236 -50 -70 0
-2237 51 0
-2237 71 0
2237 -51 -71 0
-2238 52 0
-2238 72 0
2238 -52 -72 0
-2239 53 0
-2239 73 0
2239 -53 -73 0
1 -2007 0
-2007 -1796 0
-2240 -2007 0
-2240 -1796 0
2240 2007 1796 0
2240 -1577 0
-2241 2240 0
-2241 -1577 0
2241 -2240 1577 0
2241 -1350 0
-2242 2241 0
-2242 -1350 0
2242 -2241 1350 0
2242 -1115 0
-2243 2242 0
-2243 -1115 0
2243 -2242 1115 0
2243 -2201 0
-2244 2243 0
-2244 -2201 0
2244 -2243 2201 0
2244 -2202 0
-2245 2244 0
-2245 -2202 0
2245 -2244 2202 0
2245 -2203 0
-2246 2245 0
-2246 -2203 0
2246 -2245 2203 0
2246 -2204 0
-2247 2246 0
-2247 -2204 0
2247 -2246 2204 0
2247 -2205 0
-2248 2247 0
-2248 -2205 0
2248 -2247 2205 0
2248 -2104 0
-2249 2248 0
-2249 -2104 0
2249 -2248 2104 0
2249 -1896 0
-2250 2249 0
-2250 -1896 0
2250 -2249 1896 0
2250 -1680 0
-2251 2250 0
-2251 -1680 0
2251 -2250 1680 0
2251 -1456 0
-2252 2251 0
-2252 -1456 0
2252 -2251 1456 0
2252 -1224 0
-2253 2252 0
-2253 -1224 0
2253 -2252 1224 0
2253 -984 0
-2254 2253 0
-2254 -984 0
2254 -2253 984 0
2254 -2206 0
-2255 2254 0
-2255 -2206 0
2255 -2254 2206 0
2255 -2207 0
-2256 2255 0
-2256 -2207 0
2256 -2255 2207 0
2256 -2208 0
-2257 2256 0
-2257 -2208 0
2257 -2256 2208 0
2257 -2209 0
-2258 2257 0
-2258 -2209 0
2258 -2257 2209 0
2258 -2110 0
-2259 2258 0
-2259 -2110 0
2259 -2258 2110 0
2259 -2210 0
-2260 2259 0
-2260 -2210 0
2260 -2259 2210 0
2260 -2211 0
-2261 2260 0
-2261 -2211 0
2261 -2260 2211 0
2261 -2212 0
-2262 2261 0
-2262 -2212 0
2262 -2261 2212 0
2262 -2213 0
-2263 2262 0
-2263 -2213 0
2263 -2262 2213 0
2263 -2214 0
-2264 2263 0
-2264 -2214 0
2264 -2263 2214 0
2264 -1125 0
-2265 2264 0
-2265 -1125 0
2265 -2264 1125 0
2265 -1359 0
-2266 2265 0
-2266 -1359 0
2266 -2265 1359 0
2266 -1585 0
-2267 2266 0
-2267 -1585 0
2267 -2266 1585 0
2267 -1803 0
-2268 2267 0
-2268 -1803 0
2268 -2267 1803 0
2268 -2013 0
-2269 2268 0
-2269 -2013 0
2269 -2268 2013 0
2269 -2215 0
-2270 2269 0
-2270 -2215 0
2270 -2269 2215 0
2270 -2216 0
-2271 2270 0
-2271 -2216 0
2271 -2270 2216 0
2271 -2217 0
-2272 2271 0
-2272 -2217 0
2272 -2271 2217 0
2272 -2218 0
-2273 2272 0
-2273 -2218 0
2273 -2272 2218 0
2273 -1015 0
-2274 2273 0
-2274 -1015 0
2274 -2273 1015 0
2274 -1252 0
-2275 2274 0
-2275 -1252 0
2275 -2274 1252 0
2275 -1481 0
-2276 2275 0
-2276 -1481 0
2276 -2275 1481 0
2276 -1702 0
-2277 2276 0
-2277 -1702 0
2277 -2276 1702 0
2277 -1915 0
-2278 2277 0
-2278 -1915 0
2278 -2277 1915 0
2278 -2219 0
-2279 2278 0
-2279 -2219 0
2279 -2278 2219 0
2279 -2220 0
-2280 2279 0
-2280 -2220 0
2280 -2279 2220 0
2280 -2221 0
-2281 2280 0
-2281 -2221 0
2281 -2280 2221 0
2281 -2222 0
-2282 2281 0
-2282 -2222 0
2282 -2281 2222 0
2282 -2223 0
-2283 2282 0
-2283 -2223 0
2283 -2282 2223 0
2283 -2224 0
-2284 2283 0
-2284 -2224 0
2284 -2283 2224 0
2284 -2225 0
-2285 2284 0
-2285 -2225 0
2285 -2284 2225 0
2285 -2226 0
-2286 2285 0
-2286 -2226 0
2286 -2285 2226 0
2286 -2227 0
-2287 2286 0
-2287 -2227 0
2287 -2286 2227 0
2287 -2228 0
-2288 2287 0
-2288 -2228 0
2288 -2287 2228 0
2288 -2229 0
-2289 2288 0
-2289 -2229 0
2289 -2288 2229 0
2289 -2230 0
-2290 2289 0
-2290 -2230 0
2290 -2289 2230 0
2290 -2231 0
-2291 2290 0
-2291 -2231 0
2291 -2290 2231 0
2291 -2232 0
-2292 2291 0
-2292 -2232 0
2292 -2291 2232 0
2292 -2233 0
-2293 2292 0
-2293 -2233 0
2293 -2292 2233 0
2293 -2234 0
-2294 2293 0
-2294 -2234 0
2294 -2293 2234 0
2294 -2235 0
-2295 2294 0
-2295 -2235 0
2295 -2294 2235 0
2295 -2236 0
-2296 2295 0
-2296 -2236 0
2296 -2295 2236 0
2296 -2237 0
-2297 2296 0
-2297 -2237 0
2297 -2296 2237 0
2297 -2238 0
-2298 2297 0
-2298 -2238 0
2298 -2297 2238 0
2298 -2239 0
-2299 2298 0
-2299 -2239 0
2299 -2298 2239 0
-2300 8 0
-2300 17 0
2300 -8 -17 0
-2301 9 0
-2301 16 0
2301 -9 -16 0
-2302 10 0
-2302 15 0
2302 -10 -15 0
-2303 11 0
-2303 14 0
2303 -11 -14 0
-2304 5 0
-2304 28 0
2304 -5 -28 0
-2305 4 0
-2305 27 0
2305 -4 -27 0
-2306 3 0
-2306 26 0
2306 -3 -26 0
-2307 2 0
-2307 25 0
2307 -2 -25 0
-2308 14 0
-2308 63 0
2308 -14 -63 0
-2309 15 0
-2309 62 0
2309 -15 -62 0
-2310 16 0
-2310 61 0
2310 -16 -61 0
-2311 17 0
-2311 60 0
2311 -17 -60 0
-2312 25 0
-2312 54 0
2312 -25 -54 0
-2313 26 0
-2313 55 0
2313 -26 -55 0
-2314 27 0
-2314 56 0
2314 -27 -56 0
-2315 28 0
-2315 57 0
2315 -28 -57 0
-2316 33 0
-2316 73 0
2316 -33 -73 0
-2317 34 0
-2317 74 0
2317 -34 -74 0
-2318 35 0
-2318 75 0
2318 -35 -75 0
-2319 36 0
-2319 76 0
2319 -36 -76 0
-2320 37 0
-2320 77 0
2320 -37 -77 0
-2321 38 0
-2321 78 0
2321 -38 -78 0
-2322 39 0
-2322 79 0
2322 -39 -79 0
-2323 40 0
-2323 80 0
2323 -40 -80 0
-2324 41 0
-2324 81 0
2324 -41 -81 0
-2325 42 0
-2325 82 0
2325 -42 -82 0
-2326 43 0
-2326 83 0
2326 -43 -83 0
-2327 44 0
-2327 84 0
2327 -44 -84 0
-2328 45 0
-2328 64 0
2328 -45 -64 0
-2329 46 0
-2329 65 0
2329 -46 -65 0
-2330 47 0
-2330 66 0
2330 -47 -66 0
-2331 48 0
-2331 67 0
2331 -48 -67 0
-2332 49 0
-2332 68 0
2332 -49 -68 0
-2333 50 0
-2333 69 0
2333 -50 -69 0
-2334 51 0
-2334 70 0
2334 -51 -70 0
-2335 52 0
-2335 71 0
2335 -52 -71 0
-2336 53 0
-2336 72 0
2336 -53 -72 0
1 -2109 0
-2109 -1902 0
-2337 -2109 0
-2337 -1902 0
2337 2109 1902 0
2337 -1687 0
-2338 2337 0
-2338 -1687 0
2338 -2337 1687 0
2338 -1464 0
-2339 2338 0
-2339 -1464 0
2339 -2338 1464 0
2339 -1233 0
-2340 2339 0
-2340 -1233 0
2340 -2339 1233 0
2340 -994 0
-2341 2340 0
-2341 -994 0
2341 -2340 994 0
2341 -2300 0
-2342 2341 0
-2342 -2300 0
2342 -2341 2300 0
2342 -2301 0
-2343 2342 0
-2343 -2301 0
2343 -2342 2301 0
2343 -2302 0
-2344 2343 0
-2344 -2302 0
2344 -2343 2302 0
2344 -2303 0
-2345 2344 0
-2345 -2303 0
2345 -2344 2303 0
2345 -2205 0
-2346 2345 0
-2346 -2205 0
2346 -2345 2205 0
2346 -2001 0
-2347 2346 0
-2347 -2001 0
2347 -2346 2001 0
2347 -1789 0
-2348 2347 0
-2348 -1789 0
2348 -2347 1789 0
2348 -1569 0
-2349 2348 0
-2349 -1569 0
2349 -2348 1569 0
2349 -1341 0
-2350 2349 0
-2350 -1341 0
2350 -2349 1341 0
2350 -1105 0
-2351 2350 0
-2351 -1105 0
2351 -2350 1105 0
2351 -2304 0
-2352 2351 0
-2352 -2304 0
2352 -2351 2304 0
2352 -2305 0
-2353 2352 0
-2353 -2305 0
2353 -2352 2305 0
2353 -2306 0
-2354 2353 0
-2354 -2306 0
2354 -2353 2306 0
2354 -2307 0
-2355 2354 0
-2355 -2307 0
2355 -2354 2307 0
2355 -2008 0
-2356 2355 0
-2356 -2008 0
2356 -2355 2008 0
2356 -2210 0
-2357 2356 0
-2357 -2210 0
2357 -2356 2210 0
2357 -2308 0
-2358 2357 0
-2358 -2308 0
2358 -2357 2308 0
2358 -2309 0
-2359 2358 0
-2359 -2309 0
2359 -2358 2309 0
2359 -2310 0
-2360 2359 0
-2360 -2310 0
2360 -2359 2310 0
2360 -2311 0
-2361 2360 0
-2361 -2311 0
2361 -2360 2311 0
2361 -1005 0
-2362 2361 0
-2362 -1005 0
2362 -2361 1005 0
2362 -1243 0
-2363 2362 0
-2363 -1243 0
2363 -2362 1243 0
2363 -1473 0
-2364 2363 0
-2364 -1473 0
2364 -2363 1473 0
2364 -1695 0
-2365 2364 0
-2365 -1695 0
2365 -2364 1695 0
2365 -1909 0
-2366 2365 0
-2366 -1909 0
2366 -2365 1909 0
2366 -2115 0
-2367 2366 0
-2367 -2115 0
2367 -2366 2115 0
2367 -2312 0
-2368 2367 0
-2368 -2312 0
2368 -2367 2312 0
2368 -2313 0
-2369 2368 0
-2369 -2313 0
2369 -2368 2313 0
2369 -2314 0
-2370 2369 0
-2370 -2314 0
2370 -2369 2314 0
2370 -2315 0
-2371 2370 0
-2371 -2315 0
2371 -2370 2315 0
2371 -1135 0
-2372 2371 0
-2372 -1135 0
2372 -2371 1135 0
2372 -1368 0
-2373 2372 0
-2373 -1368 0
2373 -2372 1368 0
2373 -1593 0
-2374 2373 0
-2374 -1593 0
2374 -2373 1593 0
2374 -1810 0
-2375 2374 0
-2375 -1810 0
2375 -2374 1810 0
2375 -2316 0
-2376 2375 0
-2376 -2316 0
2376 -2375 2316 0
2376 -2317 0
-2377 2376 0
-2377 -2317 0
2377 -2376 2317 0
2377 -2318 0
-2378 2377 0
-2378 -2318 0
2378 -2377 2318 0
2378 -2319 0
-2379 2378 0
-2379 -2319 0
2379 -2378 2319 0
2379 -2320 0
-2380 2379 0
-2380 -2320 0
2380 -2379 2320 0
2380 -2321 0
-2381 2380 0
-2381 -2321 0
2381 -2380 2321 0
2381 -2322 0
-2382 2381 0
-2382 -2322 0
2382 -2381 2322 0
2382 -2323 0
-2383 2382 0
-2383 -2323 0
2383 -2382 2323 0
2383 -2324 0
-2384 2383 0
-2384 -2324 0
2384 -2383 2324 0
2384 -2325 0
-2385 2384 0
-2385 -2325 0
2385 -2384 2325 0
2385 -2326 0
-2386 2385 0
-2386 -2326 0
2386 -2385 2326 0
2386 -2327 0
-2387 2386 0
-2387 -2327 0
2387 -2386 2327 0
2387 -2328 0
-2388 2387 0
-2388 -2328 0
2388 -2387 2328 0
2388 -2329 0
-2389 2388 0
-2389 -2329 0
2389 -2388 2329 0
2389 -2330 0
-2390 2389 0
-2390 -2330 0
2390 -2389 2330 0
2390 -2331 0
-2391 2390 0
-2391 -2331 0
2391 -2390 2331 0
2391 -2332 0
-2392 2391 0
-2392 -2332 0
2392 -2391 2332 0
2392 -2333 0
-2393 2392 0
-2393 -2333 0
2393 -2392 2333 0
2393 -2334 0
-2394 2393 0
-2394 -2334 0
2394 -2393 2334 0
2394 -2335 0
-2395 2394 0
-2395 -2335 0
2395 -2394 2335 0
2395 -2336 0
-2396 2395 0
-2396 -2336 0
2396 -2395 2336 0
-2397 8 0
-2397 18 0
2397 -8 -18 0
-2398 9 0
-2398 17 0
2398 -9 -17 0
-2399 10 0
-2399 16 0
2399 -10 -16 0
-2400 11 0
-2400 15 0
2400 -11 -15 0
-2401 4 0
-2401 28 0
2401 -4 -28 0
-2402 3 0
-2402 27 0
2402 -3 -27 0
-2403 2 0
-2403 26 0
2403 -2 -26 0
-2404 15 0
-2404 63 0
2404 -15 -63 0
-2405 16 0
-2405 62 0
2405 -16 -62 0
-2406 17 0
-2406 61 0
2406 -17 -61 0
-2407 18 0
-2407 60 0
2407 -18 -60 0
-2408 26 0
-2408 54 0
2408 -26 -54 0
-2409 27 0
-2409 55 0
2409 -27 -55 0
-2410 28 0
-2410 56 0
2410 -28 -56 0
-2411 33 0
-2411 72 0
2411 -33 -72 0
-2412 34 0
-2412 73 0
2412 -34 -73 0
-2413 35 0
-2413 74 0
2413 -35 -74 0
-2414 36 0
-2414 75 0
2414 -36 -75 0
-2415 37 0
-2415 76 0
2415 -37 -76 0
-2416 38 0
-2416 77 0
2416 -38 -77 0
-2417 39 0
-2417 78 0
2417 -39 -78 0
-2418 40 0
-2418 79 0
2418 -40 -79 0
-2419 41 0
-2419 80 0
2419 -41 -80 0
-2420 42 0
-2420 81 0
2420 -42 -81 0
-2421 43 0
-2421 82 0
2421 -43 -82 0
-2422 44 0
-2422 83 0
2422 -44 -83 0
-2423 45 0
-2423 84 0
2423 -45 -84 0
-2424 46 0
-2424 64 0
2424 -46 -64 0
-2425 47 0
-2425 65 0
2425 -47 -65 0
-2426 48 0
-2426 66 0
2426 -48 -66 0
-2427 49 0
-2427 67 0
2427 -49 -67 0
-2428 50 0
-2428 68 0
2428 -50 -68 0
-2429 51 0
-2429 69 0
2429 -51 -69 0
-2430 52 0
-2430 70 0
2430 -52 -70 0
-2431 53 0
-2431 71 0
2431 -53 -71 0
1 -2209 0
-2209 -2006 0
-2432 -2209 0
-2432 -2006 0
2432 2209 2006 0
2432 -1795 0
-2433 2432 0
-2433 -1795 0
2433 -2432 1795 0
2433 -1576 0
-2434 2433 0
-2434 -1576 0
2434 -2433 1576 0
2434 -1349 0
-2435 2434 0
-2435 -1349 0
2435 -2434 1349 0
2435 -1114 0
-2436 2435 0
-2436 -1114 0
2436 -2435 1114 0
2436 -2397 0
-2437 2436 0
-2437 -2397 0
2437 -2436 2397 0
2437 -2398 0
-2438 2437 0
-2438 -2398 0
2438 -2437 2398 0
2438 -2399 0
-2439 2438 0
-2439 -2399 0
2439 -2438 2399 0
2439 -2400 0
-2440 2439 0
-2440 -2400 0
2440 -2439 2400 0
2440 -2303 0
-2441 2440 0
-2441 -2303 0
2441 -2440 2303 0
2441 -2103 0
-2442 2441 0
-2442 -2103 0
2442 -2441 2103 0
2442 -1895 0
-2443 2442 0
-2443 -1895 0
2443 -2442 1895 0
2443 -1679 0
-2444 2443 0
-2444 -1679 0
2444 -2443 1679 0
2444 -1455 0
-2445 2444 0
-2445 -1455 0
2445 -2444 1455 0
2445 -1223 0
-2446 2445 0
-2446 -1223 0
2446 -2445 1223 0
2446 -983 0
-2447 2446 0
-2447 -983 0
2447 -2446 983 0
2447 -2401 0
-2448 2447 0
-2448 -2401 0
2448 -2447 2401 0
2448 -2402 0
-2449 2448 0
-2449 -2402 0
2449 -2448 2402 0
2449 -2403 0
-2450 2449 0
-2450 -2403 0
2450 -2449 2403 0
2450 -1904 0
-2451 2450 0
-2451 -1904 0
2451 -2450 1904 0
2451 -2111 0
-2452 2451 0
-2452 -2111 0
2452 -2451 2111 0
2452 -2308 0
-2453 2452 0
-2453 -2308 0
2453 -2452 2308 0
2453 -2404 0
-2454 2453 0
-2454 -2404 0
2454 -2453 2404 0
2454 -2405 0
-2455 2454 0
-2455 -2405 0
2455 -2454 2405 0
2455 -2406 0
-2456 2455 0
-2456 -2406 0
2456 -2455 2406 0
2456 -2407 0
-2457 2456 0
-2457 -2407 0
2457 -2456 2407 0
2457 -1126 0
-2458 2457 0
-2458 -1126 0
2458 -2457 1126 0
2458 -1360 0
-2459 2458 0
-2459 -1360 0
2459 -2458 1360 0
2459 -1586 0
-2460 2459 0
-2460 -1586 0
2460 -2459 1586 0
2460 -1804 0
-2461 2460 0
-2461 -1804 0
2461 -2460 1804 0
2461 -2014 0
-2462 2461 0
-2462 -2014 0
2462 -2461 2014 0
2462 -2215 0
-2463 2462 0
-2463 -2215 0
2463 -2462 2215 0
2463 -2408 0
-2464 2463 0
-2464 -2408 0
2464 -2463 2408 0
2464 -2409 0
-2465 2464 0
-2465 -2409 0
2465 -2464 2409 0
2465 -2410 0
-2466 2465 0
-2466 -2410 0
2466 -2465 2410 0
2466 -1016 0
-2467 2466 0
-2467 -1016 0
2467 -2466 1016 0
2467 -1253 0
-2468 2467 0
-2468 -1253 0
2468 -2467 1253 0
2468 -1482 0
-2469 2468 0
-2469 -1482 0
2469 -2468 1482 0
2469 -1703 0
-2470 2469 0
-2470 -1703 0
2470 -2469 1703 0
2470 -2411 0
-2471 2470 0
-2471 -2411 0
2471 -2470 2411 0
2471 -2412 0
-2472 2471 0
-2472 -2412 0
2472 -2471 2412 0
2472 -2413 0
-2473 2472 0
-2473 -2413 0
2473 -2472 2413 0
2473 -2414 0
-2474 2473 0
-2474 -2414 0
2474 -2473 2414 0
2474 -2415 0
-2475 2474 0
-2475 -2415 0
2475 -2474 2415 0
2475 -2416 0
-2476 2475 0
-2476 -2416 0
2476 -2475 2416 0
2476 -2417 0
-2477 2476 0
-2477 -2417 0
2477 -2476 2417 0
2477 -2418 0
-2478 2477 0
-2478 -2418 0
2478 -2477 2418 0
2478 -2419 0
-2479 2478 0
-2479 -2419 0
2479 -2478 2419 0
2479 -2420 0
-2480 2479 0
-2480 -2420 0
2480 -2479 2420 0
2480 -2421 0
-2481 2480 0
-2481 -2421 0
2481 -2480 2421 0
2481 -2422 0
-2482 2481 0
-2482 -2422 0
2482 -2481 2422 0
2482 -2423 0
-2483 2482 0
-2483 -2423 0
2483 -2482 2423 0
2483 -2424 0
-2484 2483 0
-2484 -2424 0
2484 -2483 2424 0
2484 -2425 0
-2485 2484 0
-2485 -2425 0
2485 -2484 2425 0
2485 -2426 0
-2486 2485 0
-2486 -2426 0
2486 -2485 2426 0
2486 -2427 0
-2487 2486 0
-2487 -2427 0
2487 -2486 2427 0
2487 -2428 0
-2488 2487 0
-2488 -2428 0
2488 -2487 2428 0
2488 -2429 0
-2489 2488 0
-2489 -2429 0
2489 -2488 2429 0
2489 -2430 0
-2490 2489 0
-2490 -2430 0
2490 -2489 2430 0
2490 -2431 0
-2491 2490 0
-2491 -2431 0
2491 -2490 2431 0
-2492 9 0
-2492 18 0
2492 -9 -18 0
-2493 10 0
-2493 17 0
2493 -10 -17 0
-2494 11 0
-2494 16 0
2494 -11 -16 0
-2495 4 0
-2495 29 0
2495 -4 -29 0
-2496 3 0
-2496 28 0
2496 -3 -28 0
-2497 2 0
-2497 27 0
2497 -2 -27 0
-2498 16 0
-2498 63 0
2498 -16 -63 0
-2499 17 0
-2499 62 0
2499 -17 -62 0
-2500 18 0
-2500 61 0
2500 -18 -61 0
-2501 27 0
-2501 54 0
2501 -27 -54 0
-2502 28 0
-2502 55 0
2502 -28 -55 0
-2503 29 0
-2503 56 0
2503 -29 -56 0
-2504 33 0
-2504 71 0
2504 -33 -71 0
-2505 34 0
-2505 72 0
2505 -34 -72 0
-2506 35 0
-2506 73 0
2506 -35 -73 0
-2507 36 0
-2507 74 0
2507 -36 -74 0
-2508 37 0
-2508 75 0
2508 -37 -75 0
-2509 38 0
-2509 76 0
2509 -38 -76 0
-2510 39 0
-2510 77 0
2510 -39 -77 0
-2511 40 0
-2511 78 0
2511 -40 -78 0
-2512 41 0
-2512 79 0
2512 -41 -79 0
-2513 42 0
-2513 80 0
2513 -42 -80 0
-2514 43 0
-2514 81 0
2514 -43 -81 0
-2515 44 0
-2515 82 0
2515 -44 -82 0
-2516 45 0
-2516 83 0
2516 -45 -83 0
-2517 46 0
-2517 84 0
2517 -46 -84 0
-2518 47 0
-2518 64 0
2518 -47 -64 0
-2519 48 0
-2519 65 0
2519 -48 -65 0
-2520 49 0
-2520 66 0
2520 -49 -66 0
-2521 50 0
-2521 67 0
2521 -50 -67 0
-2522 51 0
-2522 68 0
2522 -51 -68 0
-2523 52 0
-2523 69 0
2523 -52 -69 0
-2524 53 0
-2524 70 0
2524 -53 -70 0
1 -2307 0
-2307 -2108 0
-2525 -2307 0
-2525 -2108 0
2525 2307 2108 0
2525 -1901 0
-2526 2525 0
-2526 -1901 0
2526 -2525 1901 0
2526 -1686 0
-2527 2526 0
-2527 -1686 0
2527 -2526 1686 0
2527 -1463 0
-2528 2527 0
-2528 -1463 0
2528 -2527 1463 0
2528 -1232 0
-2529 2528 0
-2529 -1232 0
2529 -2528 1232 0
2529 -993 0
-2530 2529 0
-2530 -993 0
2530 -2529 993 0
2530 -2492 0
-2531 2530 0
-2531 -2492 0
2531 -2530 2492 0
2531 -2493 0
-2532 2531 0
-2532 -2493 0
2532 -2531 2493 0
2532 -2494 0
-2533 2532 0
-2533 -2494 0
2533 -2532 2494 0
2533 -2400 0
-2534 2533 0
-2534 -2400 0
2534 -2533 2400 0
2534 -2204 0
-2535 2534 0
-2535 -2204 0
2535 -2534 2204 0
2535 -2000 0
-2536 2535 0
-2536 -2000 0
2536 -2535 2000 0
2536 -1788 0
-2537 2536 0
-2537 -1788 0
2537 -2536 1788 0
2537 -1568 0
-2538 2537 0
-2538 -1568 0
2538 -2537 1568 0
2538 -1340 0
-2539 2538 0
-2539 -1340 0
2539 -2538 1340 0
2539 -1104 0
-2540 2539 0
-2540 -1104 0
2540 -2539 1104 0
2540 -2495 0
-2541 2540 0
-2541 -2495 0
2541 -2540 2495 0
2541 -2496 0
-2542 2541 0
-2542 -2496 0
2542 -2541 2496 0
2542 -2497 0
-2543 2542 0
-2543 -2497 0
2543 -2542 2497 0
2543 -1798 0
-2544 2543 0
-2544 -1798 0
2544 -2543 1798 0
2544 -2009 0
-2545 2544 0
-2545 -2009 0
2545 -2544 2009 0
2545 -2211 0
-2546 2545 0
-2546 -2211 0
2546 -2545 2211 0
2546 -2404 0
-2547 2546 0
-2547 -2404 0
2547 -2546 2404 0
2547 -2498 0
-2548 2547 0
-2548 -2498 0
2548 -2547 2498 0
2548 -2499 0
-2549 2548 0
-2549 -2499 0
2549 -2548 2499 0
2549 -2500 0
-2550 2549 0
-2550 -2500 0
2550 -2549 2500 0
2550 -1006 0
-2551 2550 0
-2551 -1006 0
2551 -2550 1006 0
2551 -1244 0
-2552 2551 0
-2552 -1244 0
2552 -2551 1244 0
2552 -1474 0
-2553 2552 0
-2553 -1474 0
2553 -2552 1474 0
2553 -1696 0
-2554 2553 0
-2554 -1696 0
2554 -2553 1696 0
2554 -1910 0
-2555 2554 0
-2555 -1910 0
2555 -2554 1910 0
2555 -2116 0
-2556 2555 0
-2556 -2116 0
2556 -2555 2116 0
2556 -2312 0
-2557 2556 0
-2557 -2312 0
2557 -2556 2312 0
2557 -2501 0
-2558 2557 0
-2558 -2501 0
2558 -2557 2501 0
2558 -2502 0
-2559 2558 0
-2559 -2502 0
2559 -2558 2502 0
2559 -2503 0
-2560 2559 0
-2560 -2503 0
2560 -2559 2503 0
2560 -1136 0
-2561 2560 0
-2561 -1136 0
2561 -2560 1136 0
2561 -1369 0
-2562 2561 0
-2562 -1369 0
2562 -2561 1369 0
2562 -1594 0
-2563 2562 0
-2563 -1594 0
2563 -2562 1594 0
2563 -2504 0
-2564 2563 0
-2564 -2504 0
2564 -2563 2504 0
2564 -2505 0
-2565 2564 0
-2565 -2505 0
2565 -2564 2505 0
2565 -2506 0
-2566 2565 0
-2566 -2506 0
2566 -2565 2506 0
2566 -2507 0
-2567 2566 0
-2567 -2507 0
2567 -2566 2507 0
2567 -2508 0
-2568 2567 0
-2568 -2508 0
2568 -2567 2508 0
2568 -2509 0
-2569 2568 0
-2569 -2509 0
2569 -2568 2509 0
2569 -2510 0
-2570 2569 0
-2570 -2510 0
2570 -2569 2510 0
2570 -2511 0
-2571 2570 0
-2571 -2511 0
2571 -2570 2511 0
2571 -2512 0
-2572 2571 0
-2572 -2512 0
2572 -2571 2512 0
2572 -2513 0
-2573 2572 0
-2573 -2513 0
2573 -2572 2513 0
2573 -2514 0
-2574 2573 0
-2574 -2514 0
2574 -2573 2514 0
2574 -2515 0
-2575 2574 0
-2575 -2515 0
2575 -2574 2515 0
2575 -2516 0
-2576 2575 0
-2576 -2516 0
2576 -2575 2516 0
2576 -2517 0
-2577 2576 0
-2577 -2517 0
2577 -2576 2517 0
2577 -2518 0
-2578 2577 0
-2578 -2518 0
2578 -2577 2518 0
2578 -2519 0
-2579 2578 0
-2579 -2519 0
2579 -2578 2519 0
2579 -2520 0
-2580 2579 0
-2580 -2520 0
2580 -2579 2520 0
2580 -2521 0
-2581 2580 0
-2581 -2521 0
2581 -2580 2521 0
2581 -2522 0
-2582 2581 0
-2582 -2522 0
2582 -2581 2522 0
2582 -2523 0
-2583 2582 0
-2583 -2523 0
2583 -2582 2523 0
2583 -2524 0
-2584 2583 0
-2584 -2524 0
2584 -2583 2524 0
-2585 9 0
-2585 19 0
2585 -9 -19 0
-2586 10 0
-2586 18 0
2586 -10 -18 0
-2587 11 0
-2587 17 0
2587 -11 -17 0
-2588 3 0
-2588 29 0
2588 -3 -29 0
-2589 2 0
-2589 28 0
2589 -2 -28 0
-2590 17 0
-2590 63 0
2590 -17 -63 0
-2591 18 0
-2591 62 0
2591 -18 -62 0
-2592 19 0
-2592 61 0
2592 -19 -61 0
-2593 28 0
-2593 54 0
2593 -28 -54 0
-2594 29 0
-2594 55 0
2594 -29 -55 0
-2595 33 0
-2595 70 0
2595 -33 -70 0
-2596 34 0
-2596 71 0
2596 -34 -71 0
-2597 35 0
-2597 72 0
2597 -35 -72 0
-2598 36 0
-2598 73 0
2598 -36 -73 0
-2599 37 0
-2599 74 0
2599 -37 -74 0
-2600 38 0
-2600 75 0
2600 -38 -75 0
-2601 39 0
-2601 76 0
2601 -39 -76 0
-2602 40 0
-2602 77 0
2602 -40 -77 0
-2603 41 0
-2603 78 0
2603 -41 -78 0
-2604 42 0
-2604 79 0
2604 -42 -79 0
-2605 43 0
-2605 80 0
2605 -43 -80 0
-2606 44 0
-2606 81 0
2606 -44 -81 0
-2607 45 0
-2607 82 0
2607 -45 -82 0
-2608 46 0
-2608 83 0
2608 -46 -83 0
-2609 47 0
-2609 84 0
2609 -47 -84 0
-2610 48 0
-2610 64 0
2610 -48 -64 0
-2611 49 0
-2611 65 0
2611 -49 -65 0
-2612 50 0
-2612 66 0
2612 -50 -66 0
-2613 51 0
-2613 67 0
2613 -51 -67 0
-2614 52 0
-2614 68 0
2614 -52 -68 0
-2615 53 0
-2615 69 0
2615 -53 -69 0
1 -2403 0
-2403 -2208 0
-2616 -2403 0
-2616 -2208 0
2616 2403 2208 0
2616 -2005 0
-2617 2616 0
-2617 -2005 0
2617 -2616 2005 0
2617 -1794 0
-2618 2617 0
-2618 -1794 0
2618 -2617 1794 0
2618 -1575 0
-2619 2618 0
-2619 -1575 0
2619 -2618 1575 0
2619 -1348 0
-2620 2619 0
-2620 -1348 0
2620 -2619 1348 0
2620 -1113 0
-2621 2620 0
-2621 -1113 0
2621 -2620 1113 0
2621 -2585 0
-2622 2621 0
-2622 -2585 0
2622 -2621 2585 0
2622 -2586 0
-2623 2622 0
-2623 -2586 0
2623 -2622 2586 0
2623 -2587 0
-2624 2623 0
-2624 -2587 0
2624 -2623 2587 0
2624 -2494 0
-2625 2624 0
-2625 -2494 0
2625 -2624 2494 0
2625 -2302 0
-2626 2625 0
-2626 -2302 0
2626 -2625 2302 0
2626 -2102 0
-2627 2626 0
-2627 -2102 0
2627 -2626 2102 0
2627 -1894 0
-2628 2627 0
-2628 -1894 0
2628 -2627 1894 0
2628 -1678 0
-2629 2628 0
-2629 -1678 0
2629 -2628 1678 0
2629 -1454 0
-2630 2629 0
-2630 -1454 0
2630 -2629 1454 0
2630 -1222 0
-2631 2630 0
-2631 -1222 0
2631 -2630 1222 0
2631 -982 0
-2632 2631 0
-2632 -982 0
2632 -2631 982 0
2632 -2588 0
-2633 2632 0
-2633 -2588 0
2633 -2632 2588 0
2633 -2589 0
-2634 2633 0
-2634 -2589 0
2634 -2633 2589 0
2634 -1690 0
-2635 2634 0
-2635 -1690 0
2635 -2634 1690 0
2635 -1905 0
-2636 2635 0
-2636 -1905 0
2636 -2635 1905 0
2636 -2112 0
-2637 2636 0
-2637 -2112 0
2637 -2636 2112 0
2637 -2309 0
-2638 2637 0
-2638 -2309 0
2638 -2637 2309 0
2638 -2498 0
-2639 2638 0
-2639 -2498 0
2639 -2638 2498 0
2639 -2590 0
-2640 2639 0
-2640 -2590 0
2640 -2639 2590 0
2640 -2591 0
-2641 2640 0
-2641 -2591 0
2641 -2640 2591 0
2641 -2592 0
-2642 2641 0
-2642 -2592 0
2642 -2641 2592 0
2642 -1127 0
-2643 2642 0
-2643 -1127 0
2643 -2642 1127 0
2643 -1361 0
-2644 2643 0
-2644 -1361 0
2644 -2643 1361 0
2644 -1587 0
-2645 2644 0
-2645 -1587 0
2645 -2644 1587 0
2645 -1805 0
-2646 2645 0
-2646 -1805 0
2646 -2645 1805 0
2646 -2015 0
-2647 2646 0
-2647 -2015 0
2647 -2646 2015 0
2647 -2216 0
-2648 2647 0
-2648 -2216 0
2648 -2647 2216 0
2648 -2408 0
-2649 2648 0
-2649 -2408 0
2649 -2648 2408 0
2649 -2593 0
-2650 2649 0
-2650 -2593 0
2650 -2649 2593 0
2650 -2594 0
-2651 2650 0
-2651 -2594 0
2651 -2650 2594 0
2651 -1017 0
-2652 2651 0
-2652 -1017 0
2652 -2651 1017 0
2652 -1254 0
-2653 2652 0
-2653 -1254 0
2653 -2652 1254 0
2653 -1483 0
-2654 2653 0
-2654 -1483 0
2654 -2653 1483 0
2654 -2595 0
-2655 2654 0
-2655 -2595 0
2655 -2654 2595 0
2655 -2596 0
-2656 2655 0
-2656 -2596 0
2656 -2655 2596 0
2656 -2597 0
-2657 2656 0
-2657 -2597 0
2657 -2656 2597 0
2657 -2598 0
-2658 2657 0
-2658 -2598 0
2658 -2657 2598 0
2658 -2599 0
-2659 2658 0
-2659 -2599 0
2659 -2658 2599 0
2659 -2600 0
-2660 2659 0
-2660 -2600 0
2660 -2659 2600 0
2660 -2601 0
-2661 2660 0
-2661 -2601 0
2661 -2660 2601 0
2661 -2602 0
-2662 2661 0
-2662 -2602 0
2662 -2661 2602 0
2662 -2603 0
-2663 2662 0
-2663 -2603 0
2663 -2662 2603 0
2663 -2604 0
-2664 2663 0
-2664 -2604 0
2664 -2663 2604 0
2664 -2605 0
-2665 2664 0
-2665 -2605 0
2665 -2664 2605 0
2665 -2606 0
-2666 2665 0
-2666 -2606 0
2666 -2665 2606 0
2666 -2607 0
-2667 2666 0
-2667 -2607 0
2667 -2666 2607 0
2667 -2608 0
-2668 2667 0
-2668 -2608 0
2668 -2667 2608 0
2668 -2609 0
-2669 2668 0
-2669 -2609 0
2669 -2668 2609 0
2669 -2610 0
-2670 2669 0
-2670 -2610 0
2670 -2669 2610 0
2670 -2611 0
-2671 2670 0
-2671 -2611 0
2671 -2670 2611 0
2671 -2612 0
-2672 2671 0
-2672 -2612 0
2672 -2671 2612 0
2672 -2613 0
-2673 2672 0
-2673 -2613 0
2673 -2672 2613 0
2673 -2614 0
-2674 2673 0
-2674 -2614 0
2674 -2673 2614 0
2674 -2615 0
-2675 2674 0
-2675 -2615 0
2675 -2674 2615 0
-2676 10 0
-2676 19 0
2676 -10 -19 0
-2677 11 0
-2677 18 0
2677 -11 -18 0
-2678 3 0
-2678 30 0
2678 -3 -30 0
-2679 2 0
-2679 29 0
2679 -2 -29 0
-2680 18 0
-2680 63 0
2680 -18 -63 0
-2681 19 0
-2681 62 0
2681 -19 -62 0
-2682 29 0
-2682 54 0
2682 -29 -54 0
-2683 30 0
-2683 55 0
2683 -30 -55 0
-2684 33 0
-2684 69 0
2684 -33 -69 0
-2685 34 0
-2685 70 0
2685 -34 -70 0
-2686 35 0
-2686 71 0
2686 -35 -71 0
-2687 36 0
-2687 72 0
2687 -36 -72 0
-2688 37 0
-2688 73 0
2688 -37 -73 0
-2689 38 0
-2689 74 0
2689 -38 -74 0
-2690 39 0
-2690 75 0
2690 -39 -75 0
-2691 40 0
-2691 76 0
2691 -40 -76 0
-2692 41 0
-2692 77 0
2692 -41 -77 0
-2693 42 0
-2693 78 0
2693 -42 -78 0
-2694 43 0
-2694 79 0
2694 -43 -79 0
-2695 44 0
-2695 80 0
2695 -44 -80 0
-2696 45 0
-2696 81 0
2696 -45 -81 0
-2697 46 0
-2697 82 0
2697 -46 -82 0
-2698 47 0
-2698 83 0
2698 -47 -83 0
-2699 48 0
-2699 84 0
2699 -48 -84 0
-2700 49 0
-2700 64 0
2700 -49 -64 0
-2701 50 0
-2701 65 0
2701 -50 -65 0
-2702 51 0
-2702 66 0
2702 -51 -66 0
-2703 52 0
-2703 67 0
2703 -52 -67 0
-2704 53 0
-2704 68 0
2704 -53 -68 0
1 -2497 0
-2497 -2306 0
-2705 -2497 0
-2705 -2306 0
2705 2497 2306 0
2705 -2107 0
-2706 2705 0
-2706 -2107 0
2706 -2705 2107 0
2706 -1900 0
-2707 2706 0
-2707 -1900 0
2707 -2706 1900 0
2707 -1685 0
-2708 2707 0
-2708 -1685 0
2708 -2707 1685 0
2708 -1462 0
-2709 2708 0
-2709 -1462 0
2709 -2708 1462 0
2709 -1231 0
-2710 2709 0
-2710 -1231 0
2710 -2709 1231 0
2710 -992 0
-2711 2710 0
-2711 -992 0
2711 -2710 992 0
2711 -2676 0
-2712 2711 0
-2712 -2676 0
2712 -2711 2676 0
2712 -2677 0
-2713 2712 0
-2713 -2677 0
2713 -2712 2677 0
2713 -2587 0
-2714 2713 0
-2714 -2587 0
2714 -2713 2587 0
2714 -2399 0
-2715 2714 0
-2715 -2399 0
2715 -2714 2399 0
2715 -2203 0
-2716 2715 0
-2716 -2203 0
2716 -2715 2203 0
2716 -1999 0
-2717 2716 0
-2717 -1999 0
2717 -2716 1999 0
2717 -1787 0
-2718 2717 0
-2718 -1787 0
2718 -2717 1787 0
2718 -1567 0
-2719 2718 0
-2719 -1567 0
2719 -2718 1567 0
2719 -1339 0
-2720 2719 0
-2720 -1339 0
2720 -2719 1339 0
2720 -1103 0
-2721 2720 0
-2721 -1103 0
2721 -2720 1103 0
2721 -2678 0
-2722 2721 0
-2722 -2678 0
2722 -2721 2678 0
2722 -2679 0
-2723 2722 0
-2723 -2679 0
2723 -2722 2679 0
2723 -1580 0
-2724 2723 0
-2724 -1580 0
2724 -2723 1580 0
2724 -1799 0
-2725 2724 0
-2725 -1799 0
2725 -2724 1799 0
2725 -2010 0
-2726 2725 0
-2726 -2010 0
2726 -2725 2010 0
2726 -2212 0
-2727 2726 0
-2727 -2212 0
2727 -2726 2212 0
2727 -2405 0
-2728 2727 0
-2728 -2405 0
2728 -2727 2405 0
2728 -2590 0
-2729 2728 0
-2729 -2590 0
2729 -2728 2590 0
2729 -2680 0
-2730 2729 0
-2730 -2680 0
2730 -2729 2680 0
2730 -2681 0
-2731 2730 0
-2731 -2681 0
2731 -2730 2681 0
2731 -1007 0
-2732 2731 0
-2732 -1007 0
2732 -2731 1007 0
2732 -1245 0
-2733 2732 0
-2733 -1245 0
2733 -2732 1245 0
2733 -1475 0
-2734 2733 0
-2734 -1475 0
2734 -2733 1475 0
2734 -1697 0
-2735 2734 0
-2735 -1697 0
2735 -2734 1697 0
2735 -1911 0
-2736 2735 0
-2736 -1911 0
2736 -2735 1911 0
2736 -2117 0
-2737 2736 0
-2737 -2117 0
2737 -2736 2117 0
2737 -2313 0
-2738 2737 0
-2738 -2313 0
2738 -2737 2313 0
2738 -2501 0
-2739 2738 0
-2739 -2501 0
2739 -2738 2501 0
2739 -2682 0
-2740 2739 0
-2740 -2682 0
2740 -2739 2682 0
2740 -2683 0
-2741 2740 0
-2741 -2683 0
2741 -2740 2683 0
2741 -1137 0
-2742 2741 0
-2742 -1137 0
2742 -2741 1137 0
2742 -1370 0
-2743 2742 0
-2743 -1370 0
2743 -2742 1370 0
2743 -2684 0
-2744 2743 0
-2744 -2684 0
2744 -2743 2684 0
2744 -2685 0
-2745 2744 0
-2745 -2685 0
2745 -2744 2685 0
2745 -2686 0
-2746 2745 0
-2746 -2686 0
2746 -2745 2686 0
2746 -2687 0
-2747 2746 0
-2747 -2687 0
2747 -2746 2687 0
2747 -2688 0
-2748 2747 0
-2748 -2688 0
2748 -2747 2688 0
2748 -2689 0
-2749 2748 0
-2749 -2689 0
2749 -2748 2689 0
2749 -2690 0
-2750 2749 0
-2750 -2690 0
2750 -2749 2690 0
2750 -2691 0
-2751 2750 0
-2751 -2691 0
2751 -2750 2691 0
2751 -2692 0
-2752 2751 0
-2752 -2692 0
2752 -2751 2692 0
2752 -2693 0
-2753 2752 0
-2753 -2693 0
2753 -2752 2693 0
2753 -2694 0
-2754 2753 0
-2754 -2694 0
2754 -2753 2694 0
2754 -2695 0
-2755 2754 0
-2755 -2695 0
2755 -2754 2695 0
2755 -2696 0
-2756 2755 0
-2756 -2696 0
2756 -2755 2696 0
2756 -2697 0
-2757 2756 0
-2757 -2697 0
2757 -2756 2697 0
2757 -2698 0
-2758 2757 0
-2758 -2698 0
2758 -2757 2698 0
2758 -2699 0
-2759 2758 0
-2759 -2699 0
2759 -2758 2699 0
2759 -2700 0
-2760 2759 0
-2760 -2700 0
2760 -2759 2700 0
2760 -2701 0
-2761 2760 0
-2761 -2701 0
2761 -2760 2701 0
2761 -2702 0
-2762 2761 0
-2762 -2702 0
2762 -2761 2702 0
2762 -2703 0
-2763 2762 0
-2763 -2703 0
2763 -2762 2703 0
2763 -2704 0
-2764 2763 0
-2764 -2704 0
2764 -2763 2704 0
-2765 10 0
-2765 20 0
2765 -10 -20 0
-2766 11 0
-2766 19 0
2766 -11 -19 0
-2767 2 0
-2767 30 0
2767 -2 -30 0
-2768 19 0
-2768 63 0
2768 -19 -63 0
-2769 20 0
-2769 62 0
2769 -20 -62 0
-2770 30 0
-2770 54 0
2770 -30 -54 0
-2771 33 0
-2771 68 0
2771 -33 -68 0
-2772 34 0
-2772 69 0
2772 -34 -69 0
-2773 35 0
-2773 70 0
2773 -35 -70 0
-2774 36 0
-2774 71 0
2774 -36 -71 0
-2775 37 0
-2775 72 0
2775 -37 -72 0
-2776 38 0
-2776 73 0
2776 -38 -73 0
-2777 39 0
-2777 74 0
2777 -39 -74 0
-2778 40 0
-2778 75 0
2778 -40 -75 0
-2779 41 0
-2779 76 0
2779 -41 -76 0
-2780 42 0
-2780 77 0
2780 -42 -77 0
-2781 43 0
-2781 78 0
2781 -43 -78 0
-2782 44 0
-2782 79 0
2782 -44 -79 0
-2783 45 0
-2783 80 0
2783 -45 -80 0
-2784 46 0
-2784 81 0
2784 -46 -81 0
-2785 47 0
-2785 82 0
2785 -47 -82 0
-2786 48 0
-2786 83 0
2786 -48 -83 0
-2787 49 0
-2787 84 0
2787 -49 -84 0
-2788 50 0
-2788 64 0
2788 -50 -64 0
-2789 51 0
-2789 65 0
2789 -51 -65 0
-2790 52 0
-2790 66 0
2790 -52 -66 0
-2791 53 0
-2791 67 0
2791 -53 -67 0
1 -2589 0
-2589 -2402 0
-2792 -2589 0
-2792 -2402 0
2792 2589 2402 0
2792 -2207 0
-2793 2792 0
-2793 -2207 0
2793 -2792 2207 0
2793 -2004 0
-2794 2793 0
-2794 -2004 0
2794 -2793 2004 0
2794 -1793 0
-2795 2794 0
-2795 -1793 0
2795 -2794 1793 0
2795 -1574 0
-2796 2795 0
-2796 -1574 0
2796 -2795 1574 0
2796 -1347 0
-2797 2796 0
-2797 -1347 0
2797 -2796 1347 0
2797 -1112 0
-2798 2797 0
-2798 -1112 0
2798 -2797 1112 0
2798 -2765 0
-2799 2798 0
-2799 -2765 0
2799 -2798 2765 0
2799 -2766 0
-2800 2799 0
-2800 -2766 0
2800 -2799 2766 0
2800 -2677 0
-2801 2800 0
-2801 -2677 0
2801 -2800 2677 0
2801 -2493 0
-2802 2801 0
-2802 -2493 0
2802 -2801 2493 0
2802 -2301 0
-2803 2802 0
-2803 -2301 0
2803 -2802 2301 0
2803 -2101 0
-2804 2803 0
-2804 -2101 0
2804 -2803 2101 0
2804 -1893 0
-2805 2804 0
-2805 -1893 0
2805 -2804 1893 0
2805 -1677 0
-2806 2805 0
-2806 -1677 0
2806 -2805 1677 0
2806 -1453 0
-2807 2806 0
-2807 -1453 0
2807 -2806 1453 0
2807 -1221 0
-2808 2807 0
-2808 -1221 0
2808 -2807 1221 0
2808 -981 0
-2809 2808 0
-2809 -981 0
2809 -2808 981 0
2809 -2767 0
-2810 2809 0
-2810 -2767 0
2810 -2809 2767 0
2810 -1468 0
-2811 2810 0
-2811 -1468 0
2811 -2810 1468 0
2811 -1691 0
-2812 2811 0
-2812 -1691 0
2812 -2811 1691 0
2812 -1906 0
-2813 2812 0
-2813 -1906 0
2813 -2812 1906 0
2813 -2113 0
-2814 2813 0
-2814 -2113 0
2814 -2813 2113 0
2814 -2310 0
-2815 2814 0
-2815 -2310 0
2815 -2814 2310 0
2815 -2499 0
-2816 2815 0
-2816 -2499 0
2816 -2815 2499 0
2816 -2680 0
-2817 2816 0
-2817 -2680 0
2817 -2816 2680 0
2817 -2768 0
-2818 2817 0
-2818 -2768 0
2818 -2817 2768 0
2818 -2769 0
-2819 2818 0
-2819 -2769 0
2819 -2818 2769 0
2819 -1128 0
-2820 2819 0
-2820 -1128 0
2820 -2819 1128 0
2820 -1362 0
-2821 2820 0
-2821 -1362 0
2821 -2820 1362 0
2821 -1588 0
-2822 2821 0
-2822 -1588 0
2822 -2821 1588 0
2822 -1806 0
-2823 2822 0
-2823 -1806 0
2823 -2822 1806 0
2823 -2016 0
-2824 2823 0
-2824 -2016 0
2824 -2823 2016 0
2824 -2217 0
-2825 2824 0
-2825 -2217 0
2825 -2824 2217 0
2825 -2409 0
-2826 2825 0
-2826 -2409 0
2826 -2825 2409 0
2826 -2593 0
-2827 2826 0
-2827 -2593 0
2827 -2826 2593 0
2827 -2770 0
-2828 2827 0
-2828 -2770 0
2828 -2827 2770 0
2828 -1018 0
-2829 2828 0
-2829 -1018 0
2829 -2828 1018 0
2829 -1255 0
-2830 2829 0
-2830 -1255 0
2830 -2829 1255 0
2830 -2771 0
-2831 2830 0
-2831 -2771 0
2831 -2830 2771 0
2831 -2772 0
-2832 2831 0
-2832 -2772 0
2832 -2831 2772 0
2832 -2773 0
-2833 2832 0
-2833 -2773 0
2833 -2832 2773 0
2833 -2774 0
-2834 2833 0
-2834 -2774 0
2834 -2833 2774 0
2834 -2775 0
-2835 2834 0
-2835 -2775 0
2835 -2834 2775 0
2835 -2776 0
-2836 2835 0
-2836 -2776 0
2836 -2835 2776 0
2836 -2777 0
-2837 2836 0
-2837 -2777 0
2837 -2836 2777 0
2837 -2778 0
-2838 2837 0
-2838 -2778 0
2838 -2837 2778 0
2838 -2779 0
-2839 2838 0
-2839 -2779 0
2839 -2838 2779 0
2839 -2780 0
-2840 2839 0
-2840 -2780 0
2840 -2839 2780 0
2840 -2781 0
-2841 2840 0
-2841 -2781 0
2841 -2840 2781 0
2841 -2782 0
-2842 2841 0
-2842 -2782 0
2842 -2841 2782 0
2842 -2783 0
-2843 2842 0
-2843 -2783 0
2843 -2842 2783 0
2843 -2784 0
-2844 2843 0
-2844 -2784 0
2844 -2843 2784 0
2844 -2785 0
-2845 2844 0
-2845 -2785 0
2845 -2844 2785 0
2845 -2786 0
-2846 2845 0
-2846 -2786 0
2846 -2845 2786 0
2846 -2787 0
-2847 2846 0
-2847 -2787 0
2847 -2846 2787 0
2847 -2788 0
-2848 2847 0
-2848 -2788 0
2848 -2847 2788 0
2848 -2789 0
-2849 2848 0
-2849 -2789 0
2849 -2848 2789 0
2849 -2790 0
-2850 2849 0
-2850 -2790 0
2850 -2849 2790 0
2850 -2791 0
-2851 2850 0
-2851 -2791 0
2851 -2850 2791 0
-2852 11 0
-2852 20 0
2852 -11 -20 0
-2853 2 0
-2853 31 0
2853 -2 -31 0
-2854 20 0
-2854 63 0
2854 -20 -63 0
-2855 31 0
-2855 54 0
2855 -31 -54 0
-2856 33 0
-2856 67 0
2856 -33 -67 0
-2857 34 0
-2857 68 0
2857 -34 -68 0
-2858 35 0
-2858 69 0
2858 -35 -69 0
-2859 36 0
-2859 70 0
2859 -36 -70 0
-2860 37 0
-2860 71 0
2860 -37 -71 0
-2861 38 0
-2861 72 0
2861 -38 -72 0
-2862 39 0
-2862 73 0
2862 -39 -73 0
-2863 40 0
-2863 74 0
2863 -40 -74 0
-2864 41 0
-2864 75 0
2864 -41 -75 0
-2865 42 0
-2865 76 0
2865 -42 -76 0
-2866 43 0
-2866 77 0
2866 -43 -77 0
-2867 44 0
-2867 78 0
2867 -44 -78 0
-2868 45 0
-2868 79 0
2868 -45 -79 0
-2869 46 0
-2869 80 0
2869 -46 -80 0
-2870 47 0
-2870 81 0
2870 -47 -81 0
-2871 48 0
-2871 82 0
2871 -48 -82 0
-2872 49 0
-2872 83 0
2872 -49 -83 0
-2873 50 0
-2873 84 0
2873 -50 -84 0
-2874 51 0
-2874 64 0
2874 -51 -64 0
-2875 52 0
-2875 65 0
2875 -52 -65 0
-2876 53 0
-2876 66 0
2876 -53 -66 0
1 -2679 0
-2679 -2496 0
-2877 -2679 0
-2877 -2496 0
2877 2679 2496 0
2877 -2305 0
-2878 2877 0
-2878 -2305 0
2878 -2877 2305 0
2878 -2106 0
-2879 2878 0
-2879 -2106 0
2879 -2878 2106 0
2879 -1899 0
-2880 2879 0
-2880 -1899 0
2880 -2879 1899 0
2880 -1684 0
-2881 2880 0
-2881 -1684 0
2881 -2880 1684 0
2881 -1461 0
-2882 2881 0
-2882 -1461 0
2882 -2881 1461 0
2882 -1230 0
-2883 2882 0
-2883 -1230 0
2883 -2882 1230 0
2883 -991 0
-2884 2883 0
-2884 -991 0
2884 -2883 991 0
2884 -2852 0
-2885 2884 0
-2885 -2852 0
2885 -2884 2852 0
2885 -2766 0
-2886 2885 0
-2886 -2766 0
2886 -2885 2766 0
2886 -2586 0
-2887 2886 0
-2887 -2586 0
2887 -2886 2586 0
2887 -2398 0
-2888 2887 0
-2888 -2398 0
2888 -2887 2398 0
2888 -2202 0
-2889 2888 0
-2889 -2202 0
2889 -2888 2202 0
2889 -1998 0
-2890 2889 0
-2890 -1998 0
2890 -2889 1998 0
2890 -1786 0
-2891 2890 0
-2891 -1786 0
2891 -2890 1786 0
2891 -1566 0
-2892 2891 0
-2892 -1566 0
2892 -2891 1566 0
2892 -1338 0
-2893 2892 0
-2893 -1338 0
2893 -2892 1338 0
2893 -1102 0
-2894 2893 0
-2894 -1102 0
2894 -2893 1102 0
2894 -2853 0
-2895 2894 0
-2895 -2853 0
2895 -2894 2853 0
2895 -1354 0
-2896 2895 0
-2896 -1354 0
2896 -2895 1354 0
2896 -1581 0
-2897 2896 0
-2897 -1581 0
2897 -2896 1581 0
2897 -1800 0
-2898 2897 0
-2898 -1800 0
2898 -2897 1800 0
2898 -2011 0
-2899 2898 0
-2899 -2011 0
2899 -2898 2011 0
2899 -2213 0
-2900 2899 0
-2900 -2213 0
2900 -2899 2213 0
2900 -2406 0
-2901 2900 0
-2901 -2406 0
2901 -2900 2406 0
2901 -2591 0
-2902 2901 0
-2902 -2591 0
2902 -2901 2591 0
2902 -2768 0
-2903 2902 0
-2903 -2768 0
2903 -2902 2768 0
2903 -2854 0
-2904 2903 0
-2904 -2854 0
2904 -2903 2854 0
2904 -1008 0
-2905 2904 0
-2905 -1008 0
2905 -2904 1008 0
2905 -1246 0
-2906 2905 0
-2906 -1246 0
2906 -2905 1246 0
2906 -1476 0
-2907 2906 0
-2907 -1476 0
2907 -2906 1476 0
2907 -1698 0
-2908 2907 0
-2908 -1698 0
2908 -2907 1698 0
2908 -1912 0
-2909 2908 0
-2909 -1912 0
2909 -2908 1912 0
2909 -2118 0
-2910 2909 0
-2910 -2118 0
2910 -2909 2118 0
2910 -2314 0
-2911 2910 0
-2911 -2314 0
2911 -2910 2314 0
2911 -2502 0
-2912 2911 0
-2912 -2502 0
2912 -2911 2502 0
2912 -2682 0
-2913 2912 0
-2913 -2682 0
2913 -2912 2682 0
2913 -2855 0
-2914 2913 0
-2914 -2855 0
2914 -2913 2855 0
2914 -1138 0
-2915 2914 0
-2915 -1138 0
2915 -2914 1138 0
2915 -2856 0
-2916 2915 0
-2916 -2856 0
2916 -2915 2856 0
2916 -2857 0
-2917 2916 0
-2917 -2857 0
2917 -2916 2857 0
2917 -2858 0
-2918 2917 0
-2918 -2858 0
2918 -2917 2858 0
2918 -2859 0
-2919 2918 0
-2919 -2859 0
2919 -2918 2859 0
2919 -2860 0
-2920 2919 0
-2920 -2860 0
2920 -2919 2860 0
2920 -2861 0
-2921 2920 0
-2921 -2861 0
2921 -2920 2861 0
2921 -2862 0
-2922 2921 0
-2922 -2862 0
2922 -2921 2862 0
2922 -2863 0
-2923 2922 0
-2923 -2863 0
2923 -2922 2863 0
2923 -2864 0
-2924 2923 0
-2924 -2864 0
2924 -2923 2864 0
2924 -2865 0
-2925 2924 0
-2925 -2865 0
2925 -2924 2865 0
2925 -2866 0
-2926 2925 0
-2926 -2866 0
2926 -2925 2866 0
2926 -2867 0
-2927 2926 0
-2927 -2867 0
2927 -2926 2867 0
2927 -2868 0
-2928 2927 0
-2928 -2868 0
2928 -2927 2868 0
2928 -2869 0
-2929 2928 0
-2929 -2869 0
2929 -2928 2869 0
2929 -2870 0
-2930 2929 0
-2930 -2870 0
2930 -2929 2870 0
2930 -2871 0
-2931 2930 0
-2931 -2871 0
2931 -2930 2871 0
2931 -2872 0
-2932 2931 0
-2932 -2872 0
2932 -2931 2872 0
2932 -2873 0
-2933 2932 0
-2933 -2873 0
2933 -2932 2873 0
2933 -2874 0
-2934 2933 0
-2934 -2874 0
2934 -2933 2874 0
2934 -2875 0
-2935 2934 0
-2935 -2875 0
2935 -2934 2875 0
2935 -2876 0
-2936 2935 0
-2936 -2876 0
2936 -2935 2876 0
-2937 11 0
-2937 21 0
2937 -11 -21 0
-2938 21 0
-2938 63 0
2938 -21 -63 0
-2939 33 0
-2939 66 0
2939 -33 -66 0
-2940 34 0
-2940 67 0
2940 -34 -67 0
-2941 35 0
-2941 68 0
2941 -35 -68 0
-2942 36 0
-2942 69 0
2942 -36 -69 0
-2943 37 0
-2943 70 0
2943 -37 -70 0
-2944 38 0
-2944 71 0
2944 -38 -71 0
-2945 39 0
-2945 72 0
2945 -39 -72 0
-2946 40 0
-2946 73 0
2946 -40 -73 0
-2947 41 0
-2947 74 0
2947 -41 -74 0
-2948 42 0
-2948 75 0
2948 -42 -75 0
-2949 43 0
-2949 76 0
2949 -43 -76 0
-2950 44 0
-2950 77 0
2950 -44 -77 0
-2951 45 0
-2951 78 0
2951 -45 -78 0
-2952 46 0
-2952 79 0
2952 -46 -79 0
-2953 47 0
-2953 80 0
2953 -47 -80 0
-2954 48 0
-2954 81 0
2954 -48 -81 0
-2955 49 0
-2955 82 0
2955 -49 -82 0
-2956 50 0
-2956 83 0
2956 -50 -83 0
-2957 51 0
-2957 84 0
2957 -51 -84 0
-2958 52 0
-2958 64 0
2958 -52 -64 0
-2959 53 0
-2959 65 0
2959 -53 -65 0
1 -2767 0
-2767 -2588 0
-2960 -2767 0
-2960 -2588 0
2960 2767 2588 0
2960 -2401 0
-2961 2960 0
-2961 -2401 0
2961 -2960 2401 0
2961 -2206 0
-2962 2961 0
-2962 -2206 0
2962 -2961 2206 0
2962 -2003 0
-2963 2962 0
-2963 -2003 0
2963 -2962 2003 0
2963 -1792 0
-2964 2963 0
-2964 -1792 0
2964 -2963 1792 0
2964 -1573 0
-2965 2964 0
-2965 -1573 0
2965 -2964 1573 0
2965 -1346 0
-2966 2965 0
-2966 -1346 0
2966 -2965 1346 0
2966 -1111 0
-2967 2966 0
-2967 -1111 0
2967 -2966 1111 0
2967 -2937 0
-2968 2967 0
-2968 -2937 0
2968 -2967 2937 0
2968 -2852 0
-2969 2968 0
-2969 -2852 0
2969 -2968 2852 0
2969 -2676 0
-2970 2969 0
-2970 -2676 0
2970 -2969 2676 0
2970 -2492 0
-2971 2970 0
-2971 -2492 0
2971 -2970 2492 0
2971 -2300 0
-2972 2971 0
-2972 -2300 0
2972 -2971 2300 0
2972 -2100 0
-2973 2972 0
-2973 -2100 0
2973 -2972 2100 0
2973 -1892 0
-2974 2973 0
-2974 -1892 0
2974 -2973 1892 0
2974 -1676 0
-2975 2974 0
-2975 -1676 0
2975 -2974 1676 0
2975 -1452 0
-2976 2975 0
-2976 -1452 0
2976 -2975 1452 0
2976 -1220 0
-2977 2976 0
-2977 -1220 0
2977 -2976 1220 0
2977 -980 0
-2978 2977 0
-2978 -980 0
2978 -2977 980 0
2978 -1238 0
-2979 2978 0
-2979 -1238 0
2979 -2978 1238 0
2979 -1469 0
-2980 2979 0
-2980 -1469 0
2980 -2979 1469 0
2980 -1692 0
-2981 2980 0
-2981 -1692 0
2981 -2980 1692 0
2981 -1907 0
-2982 2981 0
-2982 -1907 0
2982 -2981 1907 0
2982 -2114 0
-2983 2982 0
-2983 -2114 0
2983 -2982 2114 0
2983 -2311 0
-2984 2983 0
-2984 -2311 0
2984 -2983 2311 0
2984 -2500 0
-2985 2984 0
-2985 -2500 0
2985 -2984 2500 0
2985 -2681 0
-2986 2985 0
-2986 -2681 0
2986 -2985 2681 0
2986 -2854 0
-2987 2986 0
-2987 -2854 0
2987 -2986 2854 0
2987 -2938 0
-2988 2987 0
-2988 -2938 0
2988 -2987 2938 0
2988 -1129 0
-2989 2988 0
-2989 -1129 0
2989 -2988 1129 0
2989 -1363 0
-2990 2989 0
-2990 -1363 0
2990 -2989 1363 0
2990 -1589 0
-2991 2990 0
-2991 -1589 0
2991 -2990 1589 0
2991 -1807 0
-2992 2991 0
-2992 -1807 0
2992 -2991 1807 0
2992 -2017 0
-2993 2992 0
-2993 -2017 0
2993 -2992 2017 0
2993 -2218 0
-2994 2993 0
-2994 -2218 0
2994 -2993 2218 0
2994 -2410 0
-2995 2994 0
-2995 -2410 0
2995 -2994 2410 0
2995 -2594 0
-2996 2995 0
-2996 -2594 0
2996 -2995 2594 0
2996 -2770 0
-2997 2996 0
-2997 -2770 0
2997 -2996 2770 0
2997 -1019 0
-2998 2997 0
-2998 -1019 0
2998 -2997 1019 0
2998 -2939 0
-2999 2998 0
-2999 -2939 0
2999 -2998 2939 0
2999 -2940 0
-3000 2999 0
-3000 -2940 0
3000 -2999 2940 0
3000 -2941 0
-3001 3000 0
-3001 -2941 0
3001 -3000 2941 0
3001 -2942 0
-3002 3001 0
-3002 -2942 0
3002 -3001 2942 0
3002 -2943 0
-3003 3002 0
-3003 -2943 0
3003 -3002 2943 0
3003 -2944 0
-3004 3003 0
-3004 -2944 0
3004 -3003 2944 0
3004 -2945 0
-3005 3004 0
-3005 -2945 0
3005 -3004 2945 0
3005 -2946 0
-3006 3005 0
-3006 -2946 0
3006 -3005 2946 0
3006 -2947 0
-3007 3006 0
-3007 -2947 0
3007 -3006 2947 0
3007 -2948 0
-3008 3007 0
-3008 -2948 0
3008 -3007 2948 0
3008 -2949 0
-3009 3008 0
-3009 -2949 0
3009 -3008 2949 0
3009 -2950 0
-3010 3009 0
-3010 -2950 0
3010 -3009 2950 0
3010 -2951 0
-3011 3010 0
-3011 -2951 0
3011 -3010 2951 0
3011 -2952 0
-3012 3011 0
-3012 -2952 0
3012 -3011 2952 0
3012 -2953 0
-3013 3012 0
-3013 -2953 0
3013 -3012 2953 0
3013 -2954 0
-3014 3013 0
-3014 -2954 0
3014 -3013 2954 0
3014 -2955 0
-3015 3014 0
-3015 -2955 0
3015 -3014 2955 0
3015 -2956 0
-3016 3015 0
-3016 -2956 0
3016 -3015 2956 0
3016 -2957 0
-3017 3016 0
-3017 -2957 0
3017 -3016 2957 0
3017 -2958 0
-3018 3017 0
-3018 -2958 0
3018 -3017 2958 0
3018 -2959 0
-3019 3018 0
-3019 -2959 0
3019 -3018 2959 0
-3020 33 0
-3020 65 0
3020 -33 -65 0
-3021 34 0
-3021 66 0
3021 -34 -66 0
-3022 35 0
-3022 67 0
3022 -35 -67 0
-3023 36 0
-3023 68 0
3023 -36 -68 0
-3024 37 0
-3024 69 0
3024 -37 -69 0
-3025 38 0
-3025 70 0
3025 -38 -70 0
-3026 39 0
-3026 71 0
3026 -39 -71 0
-3027 40 0
-3027 72 0
3027 -40 -72 0
-3028 41 0
-3028 73 0
3028 -41 -73 0
-3029 42 0
-3029 74 0
3029 -42 -74 0
-3030 43 0
-3030 75 0
3030 -43 -75 0
-3031 44 0
-3031 76 0
3031 -44 -76 0
-3032 45 0
-3032 77 0
3032 -45 -77 0
-3033 46 0
-3033 78 0
3033 -46 -78 0
-3034 47 0
-3034 79 0
3034 -47 -79 0
-3035 48 0
-3035 80 0
3035 -48 -80 0
-3036 49 0
-3036 81 0
3036 -49 -81 0
-3037 50 0
-3037 82 0
3037 -50 -82 0
-3038 51 0
-3038 83 0
3038 -51 -83 0
-3039 52 0
-3039 84 0
3039 -52 -84 0
-3040 53 0
-3040 64 0
3040 -53 -64 0
1 -2853 0
-2853 -2678 0
-3041 -2853 0
-3041 -2678 0
3041 2853 2678 0
3041 -2495 0
-3042 3041 0
-3042 -2495 0
3042 -3041 2495 0
3042 -2304 0
-3043 3042 0
-3043 -2304 0
3043 -3042 2304 0
3043 -2105 0
-3044 3043 0
-3044 -2105 0
3044 -3043 2105 0
3044 -1898 0
-3045 3044 0
-3045 -1898 0
3045 -3044 1898 0
3045 -1683 0
-3046 3045 0
-3046 -1683 0
3046 -3045 1683 0
3046 -1460 0
-3047 3046 0
-3047 -1460 0
3047 -3046 1460 0
3047 -1229 0
-3048 3047 0
-3048 -1229 0
3048 -3047 1229 0
3048 -990 0
-3049 3048 0
-3049 -990 0
3049 -3048 990 0
3049 -2937 0
-3050 3049 0
-3050 -2937 0
3050 -3049 2937 0
3050 -2765 0
-3051 3050 0
-3051 -2765 0
3051 -3050 2765 0
3051 -2585 0
-3052 3051 0
-3052 -2585 0
3052 -3051 2585 0
3052 -2397 0
-3053 3052 0
-3053 -2397 0
3053 -3052 2397 0
3053 -2201 0
-3054 3053 0
-3054 -2201 0
3054 -3053 2201 0
3054 -1997 0
-3055 3054 0
-3055 -1997 0
3055 -3054 1997 0
3055 -1785 0
-3056 3055 0
-3056 -1785 0
3056 -3055 1785 0
3056 -1565 0
-3057 3056 0
-3057 -1565 0
3057 -3056 1565 0
3057 -1337 0
-3058 3057 0
-3058 -1337 0
3058 -3057 1337 0
3058 -1101 0
-3059 3058 0
-3059 -1101 0
3059 -3058 1101 0
3059 -1120 0
-3060 3059 0
-3060 -1120 0
3060 -3059 1120 0
3060 -1355 0
-3061 3060 0
-3061 -1355 0
3061 -3060 1355 0
3061 -1582 0
-3062 3061 0
-3062 -1582 0
3062 -3061 1582 0
3062 -1801 0
-3063 3062 0
-3063 -1801 0
3063 -3062 1801 0
3063 -2012 0
-3064 3063 0
-3064 -2012 0
3064 -3063 2012 0
3064 -2214 0
-3065 3064 0
-3065 -2214 0
3065 -3064 2214 0
3065 -2407 0
-3066 3065 0
-3066 -2407 0
3066 -3065 2407 0
3066 -2592 0
-3067 3066 0
-3067 -2592 0
3067 -3066 2592 0
3067 -2769 0
-3068 3067 0
-3068 -2769 0
3068 -3067 2769 0
3068 -2938 0
-3069 3068 0
-3069 -2938 0
3069 -3068 2938 0
3069 -1009 0
-3070 3069 0
-3070 -1009 0
3070 -3069 1009 0
3070 -1247 0
-3071 3070 0
-3071 -1247 0
3071 -3070 1247 0
3071 -1477 0
-3072 3071 0
-3072 -1477 0
3072 -3071 1477 0
3072 -1699 0
-3073 3072 0
-3073 -1699 0
3073 -3072 1699 0
3073 -1913 0
-3074 3073 0
-3074 -1913 0
3074 -3073 1913 0
3074 -2119 0
-3075 3074 0
-3075 -2119 0
3075 -3074 2119 0
3075 -2315 0
-3076 3075 0
-3076 -2315 0
3076 -3075 2315 0
3076 -2503 0
-3077 3076 0
-3077 -2503 0
3077 -3076 2503 0
3077 -2683 0
-3078 3077 0
-3078 -2683 0
3078 -3077 2683 0
3078 -2855 0
-3079 3078 0
-3079 -2855 0
3079 -3078 2855 0
3079 -3020 0
-3080 3079 0
-3080 -3020 0
3080 -3079 3020 0
3080 -3021 0
-3081 3080 0
-3081 -3021 0
3081 -3080 3021 0
3081 -3022 0
-3082 3081 0
-3082 -3022 0
3082 -3081 3022 0
3082 -3023 0
-3083 3082 0
-3083 -3023 0
3083 -3082 3023 0
3083 -3024 0
-3084 3083 0
-3084 -3024 0
3084 -3083 3024 0
3084 -3025 0
-3085 3084 0
-3085 -3025 0
3085 -3084 3025 0
3085 -3026 0
-3086 3085 0
-3086 -3026 0
3086 -3085 3026 0
3086 -3027 0
-3087 3086 0
-3087 -3027 0
3087 -3086 3027 0
3087 -3028 0
-3088 3087 0
-3088 -3028 0
3088 -3087 3028 0
3088 -3029 0
-3089 3088 0
-3089 -3029 0
3089 -3088 3029 0
3089 -3030 0
-3090 3089 0
-3090 -3030 0
3090 -3089 3030 0
3090 -3031 0
-3091 3090 0
-3091 -3031 0
3091 -3090 3031 0
3091 -3032 0
-3092 3091 0
-3092 -3032 0
3092 -3091 3032 0
3092 -3033 0
-3093 3092 0
-3093 -3033 0
3093 -3092 3033 0
3093 -3034 0
-3094 3093 0
-3094 -3034 0
3094 -3093 3034 0
3094 -3035 0
-3095 3094 0
-3095 -3035 0
3095 -3094 3035 0
3095 -3036 0
-3096 3095 0
-3096 -3036 0
3096 -3095 3036 0
3096 -3037 0
-3097 3096 0
-3097 -3037 0
3097 -3096 3037 0
3097 -3038 0
-3098 3097 0
-3098 -3038 0
3098 -3097 3038 0
3098 -3039 0
-3099 3098 0
-3099 -3039 0
3099 -3098 3039 0
3099 -3040 0
-3100 3099 0
-3100 -3040 0
3100 -3099 3040 0
-3101 2 0
-3101 53 0
3101 -2 -53 0
-3102 3 0
-3102 52 0
3102 -3 -52 0
-3103 4 0
-3103 51 0
3103 -4 -51 0
-3104 5 0
-3104 50 0
3104 -5 -50 0
-3105 6 0
-3105 49 0
3105 -6 -49 0
-3106 7 0
-3106 48 0
3106 -7 -48 0
-3107 8 0
-3107 47 0
3107 -8 -47 0
-3108 9 0
-3108 46 0
3108 -9 -46 0
-3109 10 0
-3109 45 0
3109 -10 -45 0
-3110 11 0
-3110 44 0
3110 -11 -44 0
-3111 11 0
-3111 43 0
3111 -11 -43 0
-3112 10 0
-3112 42 0
3112 -10 -42 0
-3113 9 0
-3113 41 0
3113 -9 -41 0
-3114 8 0
-3114 40 0
3114 -8 -40 0
-3115 7 0
-3115 39 0
3115 -7 -39 0
-3116 6 0
-3116 38 0
3116 -6 -38 0
-3117 5 0
-3117 37 0
3117 -5 -37 0
-3118 4 0
-3118 36 0
3118 -4 -36 0
-3119 3 0
-3119 35 0
3119 -3 -35 0
-3120 2 0
-3120 34 0
3120 -2 -34 0
-3121 12 0
-3121 64 0
3121 -12 -64 0
-3122 13 0
-3122 84 0
3122 -13 -84 0
-3123 14 0
-3123 83 0
3123 -14 -83 0
-3124 15 0
-3124 82 0
3124 -15 -82 0
-3125 16 0
-3125 81 0
3125 -16 -81 0
-3126 17 0
-3126 80 0
3126 -17 -80 0
-3127 18 0
-3127 79 0
3127 -18 -79 0
-3128 19 0
-3128 78 0
3128 -19 -78 0
-3129 20 0
-3129 77 0
3129 -20 -77 0
-3130 21 0
-3130 76 0
3130 -21 -76 0
-3131 22 0
-3131 75 0
3131 -22 -75 0
-3132 23 0
-3132 74 0
3132 -23 -74 0
-3133 24 0
-3133 73 0
3133 -24 -73 0
-3134 25 0
-3134 72 0
3134 -25 -72 0
-3135 26 0
-3135 71 0
3135 -26 -71 0
-3136 27 0
-3136 70 0
3136 -27 -70 0
-3137 28 0
-3137 69 0
3137 -28 -69 0
-3138 29 0
-3138 68 0
3138 -29 -68 0
-3139 30 0
-3139 67 0
3139 -30 -67 0
-3140 31 0
-3140 66 0
3140 -31 -66 0
-3141 32 0
-3141 65 0
3141 -32 -65 0
-3142 34 0
-3142 85 0
3142 -34 -85 0
-3143 35 0
-3143 86 0
3143 -35 -86 0
-3144 36 0
-3144 87 0
3144 -36 -87 0
-3145 37 0
-3145 88 0
3145 -37 -88 0
-3146 38 0
-3146 89 0
3146 -38 -89 0
-3147 39 0
-3147 90 0
3147 -39 -90 0
-3148 40 0
-3148 91 0
3148 -40 -91 0
-3149 41 0
-3149 92 0
3149 -41 -92 0
-3150 42 0
-3150 93 0
3150 -42 -93 0
-3151 43 0
-3151 94 0
3151 -43 -94 0
-3152 44 0
-3152 94 0
3152 -44 -94 0
-3153 45 0
-3153 93 0
3153 -45 -93 0
-3154 46 0
-3154 92 0
3154 -46 -92 0
-3155 47 0
-3155 91 0
3155 -47 -91 0
-3156 48 0
-3156 90 0
3156 -48 -90 0
-3157 49 0
-3157 89 0
3157 -49 -89 0
-3158 50 0
-3158 88 0
3158 -50 -88 0
-3159 51 0
-3159 87 0
3159 -51 -87 0
-3160 52 0
-3160 86 0
3160 -52 -86 0
-3161 53 0
-3161 85 0
3161 -53 -85 0
1 -3101 0
-3101 -3102 0
-3162 -3101 0
-3162 -3102 0
3162 3101 3102 0
3162 -3103 0
-3163 3162 0
-3163 -3103 0
3163 -3162 3103 0
3163 -3104 0
-3164 3163 0
-3164 -3104 0
3164 -3163 3104 0
3164 -3105 0
-3165 3164 0
-3165 -3105 0
3165 -3164 3105 0
3165 -3106 0
-3166 3165 0
-3166 -3106 0
3166 -3165 3106 0
3166 -3107 0
-3167 3166 0
-3167 -3107 0
3167 -3166 3107 0
3167 -3108 0
-3168 3167 0
-3168 -3108 0
3168 -3167 3108 0
3168 -3109 0
-3169 3168 0
-3169 -3109 0
3169 -3168 3109 0
3169 -3110 0
-3170 3169 0
-3170 -3110 0
3170 -3169 3110 0
3170 -3111 0
-3171 3170 0
-3171 -3111 0
3171 -3170 3111 0
3171 -3112 0
-3172 3171 0
-3172 -3112 0
3172 -3171 3112 0
3172 -3113 0
-3173 3172 0
-3173 -3113 0
3173 -3172 3113 0
3173 -3114 0
-3174 3173 0
-3174 -3114 0
3174 -3173 3114 0
3174 -3115 0
-3175 3174 0
-3175 -3115 0
3175 -3174 3115 0
3175 -3116 0
-3176 3175 0
-3176 -3116 0
3176 -3175 3116 0
3176 -3117 0
-3177 3176 0
-3177 -3117 0
3177 -3176 3117 0
3177 -3118 0
-3178 3177 0
-3178 -3118 0
3178 -3177 3118 0
3178 -3119 0
-3179 3178 0
-3179 -3119 0
3179 -3178 3119 0
3179 -3120 0
-3180 3179 0
-3180 -3120 0
3180 -3179 3120 0
3180 -3121 0
-3181 3180 0
-3181 -3121 0
3181 -3180 3121 0
3181 -3122 0
-3182 3181 0
-3182 -3122 0
3182 -3181 3122 0
3182 -3123 0
-3183 3182 0
-3183 -3123 0
3183 -3182 3123 0
3183 -3124 0
-3184 3183 0
-3184 -3124 0
3184 -3183 3124 0
3184 -3125 0
-3185 3184 0
-3185 -3125 0
3185 -3184 3125 0
3185 -3126 0
-3186 3185 0
-3186 -3126 0
3186 -3185 3126 0
3186 -3127 0
-3187 3186 0
-3187 -3127 0
3187 -3186 3127 0
3187 -3128 0
-3188 3187 0
-3188 -3128 0
3188 -3187 3128 0
3188 -3129 0
-3189 3188 0
-3189 -3129 0
3189 -3188 3129 0
3189 -3130 0
-3190 3189 0
-3190 -3130 0
3190 -3189 3130 0
3190 -3131 0
-3191 3190 0
-3191 -3131 0
3191 -3190 3131 0
3191 -3132 0
-3192 3191 0
-3192 -3132 0
3192 -3191 3132 0
3192 -3133 0
-3193 3192 0
-3193 -3133 0
3193 -3192 3133 0
3193 -3134 0
-3194 3193 0
-3194 -3134 0
3194 -3193 3134 0
3194 -3135 0
-3195 3194 0
-3195 -3135 0
3195 -3194 3135 0
3195 -3136 0
-3196 3195 0
-3196 -3136 0
3196 -3195 3136 0
3196 -3137 0
-3197 3196 0
-3197 -3137 0
3197 -3196 3137 0
3197 -3138 0
-3198 3197 0
-3198 -3138 0
3198 -3197 3138 0
3198 -3139 0
-3199 3198 0
-3199 -3139 0
3199 -3198 3139 0
3199 -3140 0
-3200 3199 0
-3200 -3140 0
3200 -3199 3140 0
3200 -3141 0
-3201 3200 0
-3201 -3141 0
3201 -3200 3141 0
3201 -3142 0
-3202 3201 0
-3202 -3142 0
3202 -3201 3142 0
3202 -3143 0
-3203 3202 0
-3203 -3143 0
3203 -3202 3143 0
3203 -3144 0
-3204 3203 0
-3204 -3144 0
3204 -3203 3144 0
3204 -3145 0
-3205 3204 0
-3205 -3145 0
3205 -3204 3145 0
3205 -3146 0
-3206 3205 0
-3206 -3146 0
3206 -3205 3146 0
3206 -3147 0
-3207 3206 0
-3207 -3147 0
3207 -3206 3147 0
3207 -3148 0
-3208 3207 0
-3208 -3148 0
3208 -3207 3148 0
3208 -3149 0
-3209 3208 0
-3209 -3149 0
3209 -3208 3149 0
3209 -3150 0
-3210 3209 0
-3210 -3150 0
3210 -3209 3150 0
3210 -3151 0
-3211 3210 0
-3211 -3151 0
3211 -3210 3151 0
3211 -3152 0
-3212 3211 0
-3212 -3152 0
3212 -3211 3152 0
3212 -3153 0
-3213 3212 0
-3213 -3153 0
3213 -3212 3153 0
3213 -3154 0
-3214 3213 0
-3214 -3154 0
3214 -3213 3154 0
3214 -3155 0
-3215 3214 0
-3215 -3155 0
3215 -3214 3155 0
3215 -3156 0
-3216 3215 0
-3216 -3156 0
3216 -3215 3156 0
3216 -3157 0
-3217 3216 0
-3217 -3157 0
3217 -3216 3157 0
3217 -3158 0
-3218 3217 0
-3218 -3158 0
3218 -3217 3158 0
3218 -3159 0
-3219 3218 0
-3219 -3159 0
3219 -3218 3159 0
3219 -3160 0
-3220 3219 0
-3220 -3160 0
3220 -3219 3160 0
3220 -3161 0
-3221 3220 0
-3221 -3161 0
3221 -3220 3161 0
-3222 2 0
-3222 33 0
3222 -2 -33 0
-3223 3 0
-3223 53 0
3223 -3 -53 0
-3224 4 0
-3224 52 0
3224 -4 -52 0
-3225 5 0
-3225 51 0
3225 -5 -51 0
-3226 6 0
-3226 50 0
3226 -6 -50 0
-3227 7 0
-3227 49 0
3227 -7 -49 0
-3228 8 0
-3228 48 0
3228 -8 -48 0
-3229 9 0
-3229 47 0
3229 -9 -47 0
-3230 10 0
-3230 46 0
3230 -10 -46 0
-3231 11 0
-3231 45 0
3231 -11 -45 0
-3232 10 0
-3232 43 0
3232 -10 -43 0
-3233 9 0
-3233 42 0
3233 -9 -42 0
-3234 8 0
-3234 41 0
3234 -8 -41 0
-3235 7 0
-3235 40 0
3235 -7 -40 0
-3236 6 0
-3236 39 0
3236 -6 -39 0
-3237 5 0
-3237 38 0
3237 -5 -38 0
-3238 4 0
-3238 37 0
3238 -4 -37 0
-3239 3 0
-3239 36 0
3239 -3 -36 0
-3240 2 0
-3240 35 0
3240 -2 -35 0
-3241 12 0
-3241 65 0
3241 -12 -65 0
-3242 13 0
-3242 64 0
3242 -13 -64 0
-3243 14 0
-3243 84 0
3243 -14 -84 0
-3244 15 0
-3244 83 0
3244 -15 -83 0
-3245 16 0
-3245 82 0
3245 -16 -82 0
-3246 17 0
-3246 81 0
3246 -17 -81 0
-3247 18 0
-3247 80 0
3247 -18 -80 0
-3248 19 0
-3248 79 0
3248 -19 -79 0
-3249 20 0
-3249 78 0
3249 -20 -78 0
-3250 21 0
-3250 77 0
3250 -21 -77 0
-3251 22 0
-3251 76 0
3251 -22 -76 0
-3252 23 0
-3252 75 0
3252 -23 -75 0
-3253 24 0
-3253 74 0
3253 -24 -74 0
-3254 25 0
-3254 73 0
3254 -25 -73 0
-3255 26 0
-3255 72 0
3255 -26 -72 0
-3256 27 0
-3256 71 0
3256 -27 -71 0
-3257 28 0
-3257 70 0
3257 -28 -70 0
-3258 29 0
-3258 69 0
3258 -29 -69 0
-3259 30 0
-3259 68 0
3259 -30 -68 0
-3260 31 0
-3260 67 0
3260 -31 -67 0
-3261 32 0
-3261 66 0
3261 -32 -66 0
-3262 33 0
-3262 85 0
3262 -33 -85 0
-3263 35 0
-3263 85 0
3263 -35 -85 0
-3264 36 0
-3264 86 0
3264 -36 -86 0
-3265 37 0
-3265 87 0
3265 -37 -87 0
-3266 38 0
-3266 88 0
3266 -38 -88 0
-3267 39 0
-3267 89 0
3267 -39 -89 0
-3268 40 0
-3268 90 0
3268 -40 -90 0
-3269 41 0
-3269 91 0
3269 -41 -91 0
-3270 42 0
-3270 92 0
3270 -42 -92 0
-3271 43 0
-3271 93 0
3271 -43 -93 0
-3272 45 0
-3272 94 0
3272 -45 -94 0
-3273 46 0
-3273 93 0
3273 -46 -93 0
-3274 47 0
-3274 92 0
3274 -47 -92 0
-3275 48 0
-3275 91 0
3275 -48 -91 0
-3276 49 0
-3276 90 0
3276 -49 -90 0
-3277 50 0
-3277 89 0
3277 -50 -89 0
-3278 51 0
-3278 88 0
3278 -51 -88 0
-3279 52 0
-3279 87 0
3279 -52 -87 0
-3280 53 0
-3280 86 0
3280 -53 -86 0
1 -3222 0
-3222 -3223 0
-3281 -3222 0
-3281 -3223 0
3281 3222 3223 0
3281 -3224 0
-3282 3281 0
-3282 -3224 0
3282 -3281 3224 0
3282 -3225 0
-3283 3282 0
-3283 -3225 0
3283 -3282 3225 0
3283 -3226 0
-3284 3283 0
-3284 -3226 0
3284 -3283 3226 0
3284 -3227 0
-3285 3284 0
-3285 -3227 0
3285 -3284 3227 0
3285 -3228 0
-3286 3285 0
-3286 -3228 0
3286 -3285 3228 0
3286 -3229 0
-3287 3286 0
-3287 -3229 0
3287 -3286 3229 0
3287 -3230 0
-3288 3287 0
-3288 -3230 0
3288 -3287 3230 0
3288 -3231 0
-3289 3288 0
-3289 -3231 0
3289 -3288 3231 0
3289 -3110 0
-3290 3289 0
-3290 -3110 0
3290 -3289 3110 0
3290 -3232 0
-3291 3290 0
-3291 -3232 0
3291 -3290 3232 0
3291 -3233 0
-3292 3291 0
-3292 -3233 0
3292 -3291 3233 0
3292 -3234 0
-3293 3292 0
-3293 -3234 0
3293 -3292 3234 0
3293 -3235 0
-3294 3293 0
-3294 -3235 0
3294 -3293 3235 0
3294 -3236 0
-3295 3294 0
-3295 -3236 0
3295 -3294 3236 0
3295 -3237 0
-3296 3295 0
-3296 -3237 0
3296 -3295 3237 0
3296 -3238 0
-3297 3296 0
-3297 -3238 0
3297 -3296 3238 0
3297 -3239 0
-3298 3297 0
-3298 -3239 0
3298 -3297 3239 0
3298 -3240 0
-3299 3298 0
-3299 -3240 0
3299 -3298 3240 0
3299 -3241 0
-3300 3299 0
-3300 -3241 0
3300 -3299 3241 0
3300 -3242 0
-3301 3300 0
-3301 -3242 0
3301 -3300 3242 0
3301 -3243 0
-3302 3301 0
-3302 -3243 0
3302 -3301 3243 0
3302 -3244 0
-3303 3302 0
-3303 -3244 0
3303 -3302 3244 0
3303 -3245 0
-3304 3303 0
-3304 -3245 0
3304 -3303 3245 0
3304 -3246 0
-3305 3304 0
-3305 -3246 0
3305 -3304 3246 0
3305 -3247 0
-3306 3305 0
-3306 -3247 0
3306 -3305 3247 0
3306 -3248 0
-3307 3306 0
-3307 -3248 0
3307 -3306 3248 0
3307 -3249 0
-3308 3307 0
-3308 -3249 0
3308 -3307 3249 0
3308 -3250 0
-3309 3308 0
-3309 -3250 0
3309 -3308 3250 0
3309 -3251 0
-3310 3309 0
-3310 -3251 0
3310 -3309 3251 0
3310 -3252 0
-3311 3310 0
-3311 -3252 0
3311 -3310 3252 0
3311 -3253 0
-3312 3311 0
-3312 -3253 0
3312 -3311 3253 0
3312 -3254 0
-3313 3312 0
-3313 -3254 0
3313 -3312 3254 0
3313 -3255 0
-3314 3313 0
-3314 -3255 0
3314 -3313 3255 0
3314 -3256 0
-3315 3314 0
-3315 -3256 0
3315 -3314 3256 0
3315 -3257 0
-3316 3315 0
-3316 -3257 0
3316 -3315 3257 0
3316 -3258 0
-3317 3316 0
-3317 -3258 0
3317 -3316 3258 0
3317 -3259 0
-3318 3317 0
-3318 -3259 0
3318 -3317 3259 0
3318 -3260 0
-3319 3318 0
-3319 -3260 0
3319 -3318 3260 0
3319 -3261 0
-3320 3319 0
-3320 -3261 0
3320 -3319 3261 0
3320 -3262 0
-3321 3320 0
-3321 -3262 0
3321 -3320 3262 0
3321 -3263 0
-3322 3321 0
-3322 -3263 0
3322 -3321 3263 0
3322 -3264 0
-3323 3322 0
-3323 -3264 0
3323 -3322 3264 0
3323 -3265 0
-3324 3323 0
-3324 -3265 0
3324 -3323 3265 0
3324 -3266 0
-3325 3324 0
-3325 -3266 0
3325 -3324 3266 0
3325 -3267 0
-3326 3325 0
-3326 -3267 0
3326 -3325 3267 0
3326 -3268 0
-3327 3326 0
-3327 -3268 0
3327 -3326 3268 0
3327 -3269 0
-3328 3327 0
-3328 -3269 0
3328 -3327 3269 0
3328 -3270 0
-3329 3328 0
-3329 -3270 0
3329 -3328 3270 0
3329 -3271 0
-3330 3329 0
-3330 -3271 0
3330 -3329 3271 0
3330 -3152 0
-3331 3330 0
-3331 -3152 0
3331 -3330 3152 0
3331 -3272 0
-3332 3331 0
-3332 -3272 0
3332 -3331 3272 0
3332 -3273 0
-3333 3332 0
-3333 -3273 0
3333 -3332 3273 0
3333 -3274 0
-3334 3333 0
-3334 -3274 0
3334 -3333 3274 0
3334 -3275 0
-3335 3334 0
-3335 -3275 0
3335 -3334 3275 0
3335 -3276 0
-3336 3335 0
-3336 -3276 0
3336 -3335 3276 0
3336 -3277 0
-3337 3336 0
-3337 -3277 0
3337 -3336 3277 0
3337 -3278 0
-3338 3337 0
-3338 -3278 0
3338 -3337 3278 0
3338 -3279 0
-3339 3338 0
-3339 -3279 0
3339 -3338 3279 0
3339 -3280 0
-3340 3339 0
-3340 -3280 0
3340 -3339 3280 0
-3341 3 0
-3341 33 0
3341 -3 -33 0
-3342 4 0
-3342 53 0
3342 -4 -53 0
-3343 5 0
-3343 52 0
3343 -5 -52 0
-3344 6 0
-3344 51 0
3344 -6 -51 0
-3345 7 0
-3345 50 0
3345 -7 -50 0
-3346 8 0
-3346 49 0
3346 -8 -49 0
-3347 9 0
-3347 48 0
3347 -9 -48 0
-3348 10 0
-3348 47 0
3348 -10 -47 0
-3349 11 0
-3349 46 0
3349 -11 -46 0
-3350 10 0
-3350 44 0
3350 -10 -44 0
-3351 9 0
-3351 43 0
3351 -9 -43 0
-3352 8 0
-3352 42 0
3352 -8 -42 0
-3353 7 0
-3353 41 0
3353 -7 -41 0
-3354 6 0
-3354 40 0
3354 -6 -40 0
-3355 5 0
-3355 39 0
3355 -5 -39 0
-3356 4 0
-3356 38 0
3356 -4 -38 0
-3357 3 0
-3357 37 0
3357 -3 -37 0
-3358 2 0
-3358 36 0
3358 -2 -36 0
-3359 12 0
-3359 66 0
3359 -12 -66 0
-3360 13 0
-3360 65 0
3360 -13 -65 0
-3361 14 0
-3361 64 0
3361 -14 -64 0
-3362 15 0
-3362 84 0
3362 -15 -84 0
-3363 16 0
-3363 83 0
3363 -16 -83 0
-3364 17 0
-3364 82 0
3364 -17 -82 0
-3365 18 0
-3365 81 0
3365 -18 -81 0
-3366 19 0
-3366 80 0
3366 -19 -80 0
-3367 20 0
-3367 79 0
3367 -20 -79 0
-3368 21 0
-3368 78 0
3368 -21 -78 0
-3369 22 0
-3369 77 0
3369 -22 -77 0
-3370 23 0
-3370 76 0
3370 -23 -76 0
-3371 24 0
-3371 75 0
3371 -24 -75 0
-3372 25 0
-3372 74 0
3372 -25 -74 0
-3373 26 0
-3373 73 0
3373 -26 -73 0
-3374 27 0
-3374 72 0
3374 -27 -72 0
-3375 28 0
-3375 71 0
3375 -28 -71 0
-3376 29 0
-3376 70 0
3376 -29 -70 0
-3377 30 0
-3377 69 0
3377 -30 -69 0
-3378 31 0
-3378 68 0
3378 -31 -68 0
-3379 32 0
-3379 67 0
3379 -32 -67 0
-3380 33 0
-3380 86 0
3380 -33 -86 0
-3381 36 0
-3381 85 0
3381 -36 -85 0
-3382 37 0
-3382 86 0
3382 -37 -86 0
-3383 38 0
-3383 87 0
3383 -38 -87 0
-3384 39 0
-3384 88 0
3384 -39 -88 0
-3385 40 0
-3385 89 0
3385 -40 -89 0
-3386 41 0
-3386 90 0
3386 -41 -90 0
-3387 42 0
-3387 91 0
3387 -42 -91 0
-3388 43 0
-3388 92 0
3388 -43 -92 0
-3389 44 0
-3389 93 0
3389 -44 -93 0
-3390 46 0
-3390 94 0
3390 -46 -94 0
-3391 47 0
-3391 93 0
3391 -47 -93 0
-3392 48 0
-3392 92 0
3392 -48 -92 0
-3393 49 0
-3393 91 0
3393 -49 -91 0
-3394 50 0
-3394 90 0
3394 -50 -90 0
-3395 51 0
-3395 89 0
3395 -51 -89 0
-3396 52 0
-3396 88 0
3396 -52 -88 0
-3397 53 0
-3397 87 0
3397 -53 -87 0
1 -3120 0
-3120 -3341 0
-3398 -3120 0
-3398 -3341 0
3398 3120 3341 0
3398 -3342 0
-3399 3398 0
-3399 -3342 0
3399 -3398 3342 0
3399 -3343 0
-3400 3399 0
-3400 -3343 0
3400 -3399 3343 0
3400 -3344 0
-3401 3400 0
-3401 -3344 0
3401 -3400 3344 0
3401 -3345 0
-3402 3401 0
-3402 -3345 0
3402 -3401 3345 0
3402 -3346 0
-3403 3402 0
-3403 -3346 0
3403 -3402 3346 0
3403 -3347 0
-3404 3403 0
-3404 -3347 0
3404 -3403 3347 0
3404 -3348 0
-3405 3404 0
-3405 -3348 0
3405 -3404 3348 0
3405 -3349 0
-3406 3405 0
-3406 -3349 0
3406 -3405 3349 0
3406 -3231 0
-3407 3406 0
-3407 -3231 0
3407 -3406 3231 0
3407 -3350 0
-3408 3407 0
-3408 -3350 0
3408 -3407 3350 0
3408 -3351 0
-3409 3408 0
-3409 -3351 0
3409 -3408 3351 0
3409 -3352 0
-3410 3409 0
-3410 -3352 0
3410 -3409 3352 0
3410 -3353 0
-3411 3410 0
-3411 -3353 0
3411 -3410 3353 0
3411 -3354 0
-3412 3411 0
-3412 -3354 0
3412 -3411 3354 0
3412 -3355 0
-3413 3412 0
-3413 -3355 0
3413 -3412 3355 0
3413 -3356 0
-3414 3413 0
-3414 -3356 0
3414 -3413 3356 0
3414 -3357 0
-3415 3414 0
-3415 -3357 0
3415 -3414 3357 0
3415 -3358 0
-3416 3415 0
-3416 -3358 0
3416 -3415 3358 0
3416 -3359 0
-3417 3416 0
-3417 -3359 0
3417 -3416 3359 0
3417 -3360 0
-3418 3417 0
-3418 -3360 0
3418 -3417 3360 0
3418 -3361 0
-3419 3418 0
-3419 -3361 0
3419 -3418 3361 0
3419 -3362 0
-3420 3419 0
-3420 -3362 0
3420 -3419 3362 0
3420 -3363 0
-3421 3420 0
-3421 -3363 0
3421 -3420 3363 0
3421 -3364 0
-3422 3421 0
-3422 -3364 0
3422 -3421 3364 0
3422 -3365 0
-3423 3422 0
-3423 -3365 0
3423 -3422 3365 0
3423 -3366 0
-3424 3423 0
-3424 -3366 0
3424 -3423 3366 0
3424 -3367 0
-3425 3424 0
-3425 -3367 0
3425 -3424 3367 0
3425 -3368 0
-3426 3425 0
-3426 -3368 0
3426 -3425 3368 0
3426 -3369 0
-3427 3426 0
-3427 -3369 0
3427 -3426 3369 0
3427 -3370 0
-3428 3427 0
-3428 -3370 0
3428 -3427 3370 0
3428 -3371 0
-3429 3428 0
-3429 -3371 0
3429 -3428 3371 0
3429 -3372 0
-3430 3429 0
-3430 -3372 0
3430 -3429 3372 0
3430 -3373 0
-3431 3430 0
-3431 -3373 0
3431 -3430 3373 0
3431 -3374 0
-3432 3431 0
-3432 -3374 0
3432 -3431 3374 0
3432 -3375 0
-3433 3432 0
-3433 -3375 0
3433 -3432 3375 0
3433 -3376 0
-3434 3433 0
-3434 -3376 0
3434 -3433 3376 0
3434 -3377 0
-3435 3434 0
-3435 -3377 0
3435 -3434 3377 0
3435 -3378 0
-3436 3435 0
-3436 -3378 0
3436 -3435 3378 0
3436 -3379 0
-3437 3436 0
-3437 -3379 0
3437 -3436 3379 0
3437 -3380 0
-3438 3437 0
-3438 -3380 0
3438 -3437 3380 0
3438 -3142 0
-3439 3438 0
-3439 -3142 0
3439 -3438 3142 0
3439 -3381 0
-3440 3439 0
-3440 -3381 0
3440 -3439 3381 0
3440 -3382 0
-3441 3440 0
-3441 -3382 0
3441 -3440 3382 0
3441 -3383 0
-3442 3441 0
-3442 -3383 0
3442 -3441 3383 0
3442 -3384 0
-3443 3442 0
-3443 -3384 0
3443 -3442 3384 0
3443 -3385 0
-3444 3443 0
-3444 -3385 0
3444 -3443 3385 0
3444 -3386 0
-3445 3444 0
-3445 -3386 0
3445 -3444 3386 0
3445 -3387 0
-3446 3445 0
-3446 -3387 0
3446 -3445 3387 0
3446 -3388 0
-3447 3446 0
-3447 -3388 0
3447 -3446 3388 0
3447 -3389 0
-3448 3447 0
-3448 -3389 0
3448 -3447 3389 0
3448 -3272 0
-3449 3448 0
-3449 -3272 0
3449 -3448 3272 0
3449 -3390 0
-3450 3449 0
-3450 -3390 0
3450 -3449 3390 0
3450 -3391 0
-3451 3450 0
-3451 -3391 0
3451 -3450 3391 0
3451 -3392 0
-3452 3451 0
-3452 -3392 0
3452 -3451 3392 0
3452 -3393 0
-3453 3452 0
-3453 -3393 0
3453 -3452 3393 0
3453 -3394 0
-3454 3453 0
-3454 -3394 0
3454 -3453 3394 0
3454 -3395 0
-3455 3454 0
-3455 -3395 0
3455 -3454 3395 0
3455 -3396 0
-3456 3455 0
-3456 -3396 0
3456 -3455 3396 0
3456 -3397 0
-3457 3456 0
-3457 -3397 0
3457 -3456 3397 0
-3458 3 0
-3458 34 0
3458 -3 -34 0
-3459 4 0
-3459 33 0
3459 -4 -33 0
-3460 5 0
-3460 53 0
3460 -5 -53 0
-3461 6 0
-3461 52 0
3461 -6 -52 0
-3462 7 0
-3462 51 0
3462 -7 -51 0
-3463 8 0
-3463 50 0
3463 -8 -50 0
-3464 9 0
-3464 49 0
3464 -9 -49 0
-3465 10 0
-3465 48 0
3465 -10 -48 0
-3466 11 0
-3466 47 0
3466 -11 -47 0
-3467 9 0
-3467 44 0
3467 -9 -44 0
-3468 8 0
-3468 43 0
3468 -8 -43 0
-3469 7 0
-3469 42 0
3469 -7 -42 0
-3470 6 0
-3470 41 0
3470 -6 -41 0
-3471 5 0
-3471 40 0
3471 -5 -40 0
-3472 4 0
-3472 39 0
3472 -4 -39 0
-3473 3 0
-3473 38 0
3473 -3 -38 0
-3474 2 0
-3474 37 0
3474 -2 -37 0
-3475 12 0
-3475 67 0
3475 -12 -67 0
-3476 13 0
-3476 66 0
3476 -13 -66 0
-3477 14 0
-3477 65 0
3477 -14 -65 0
-3478 15 0
-3478 64 0
3478 -15 -64 0
-3479 16 0
-3479 84 0
3479 -16 -84 0
-3480 17 0
-3480 83 0
3480 -17 -83 0
-3481 18 0
-3481 82 0
3481 -18 -82 0
-3482 19 0
-3482 81 0
3482 -19 -81 0
-3483 20 0
-3483 80 0
3483 -20 -80 0
-3484 21 0
-3484 79 0
3484 -21 -79 0
-3485 22 0
-3485 78 0
3485 -22 -78 0
-3486 23 0
-3486 77 0
3486 -23 -77 0
-3487 24 0
-3487 76 0
3487 -24 -76 0
-3488 25 0
-3488 75 0
3488 -25 -75 0
-3489 26 0
-3489 74 0
3489 -26 -74 0
-3490 27 0
-3490 73 0
3490 -27 -73 0
-3491 28 0
-3491 72 0
3491 -28 -72 0
-3492 29 0
-3492 71 0
3492 -29 -71 0
-3493 30 0
-3493 70 0
3493 -30 -70 0
-3494 31 0
-3494 69 0
3494 -31 -69 0
-3495 32 0
-3495 68 0
3495 -32 -68 0
-3496 33 0
-3496 87 0
3496 -33 -87 0
-3497 34 0
-3497 86 0
3497 -34 -86 0
-3498 37 0
-3498 85 0
3498 -37 -85 0
-3499 38 0
-3499 86 0
3499 -38 -86 0
-3500 39 0
-3500 87 0
3500 -39 -87 0
-3501 40 0
-3501 88 0
3501 -40 -88 0
-3502 41 0
-3502 89 0
3502 -41 -89 0
-3503 42 0
-3503 90 0
3503 -42 -90 0
-3504 43 0
-3504 91 0
3504 -43 -91 0
-3505 44 0
-3505 92 0
3505 -44 -92 0
-3506 47 0
-3506 94 0
3506 -47 -94 0
-3507 48 0
-3507 93 0
3507 -48 -93 0
-3508 49 0
-3508 92 0
3508 -49 -92 0
-3509 50 0
-3509 91 0
3509 -50 -91 0
-3510 51 0
-3510 90 0
3510 -51 -90 0
-3511 52 0
-3511 89 0
3511 -52 -89 0
-3512 53 0
-3512 88 0
3512 -53 -88 0
1 -3240 0
-3240 -3458 0
-3513 -3240 0
-3513 -3458 0
3513 3240 3458 0
3513 -3459 0
-3514 3513 0
-3514 -3459 0
3514 -3513 3459 0
3514 -3460 0
-3515 3514 0
-3515 -3460 0
3515 -3514 3460 0
3515 -3461 0
-3516 3515 0
-3516 -3461 0
3516 -3515 3461 0
3516 -3462 0
-3517 3516 0
-3517 -3462 0
3517 -3516 3462 0
3517 -3463 0
-3518 3517 0
-3518 -3463 0
3518 -3517 3463 0
3518 -3464 0
-3519 3518 0
-3519 -3464 0
3519 -3518 3464 0
3519 -3465 0
-3520 3519 0
-3520 -3465 0
3520 -3519 3465 0
3520 -3466 0
-3521 3520 0
-3521 -3466 0
3521 -3520 3466 0
3521 -3349 0
-3522 3521 0
-3522 -3349 0
3522 -3521 3349 0
3522 -3109 0
-3523 3522 0
-3523 -3109 0
3523 -3522 3109 0
3523 -3467 0
-3524 3523 0
-3524 -3467 0
3524 -3523 3467 0
3524 -3468 0
-3525 3524 0
-3525 -3468 0
3525 -3524 3468 0
3525 -3469 0
-3526 3525 0
-3526 -3469 0
3526 -3525 3469 0
3526 -3470 0
-3527 3526 0
-3527 -3470 0
3527 -3526 3470 0
3527 -3471 0
-3528 3527 0
-3528 -3471 0
3528 -3527 3471 0
3528 -3472 0
-3529 3528 0
-3529 -3472 0
3529 -3528 3472 0
3529 -3473 0
-3530 3529 0
-3530 -3473 0
3530 -3529 3473 0
3530 -3474 0
-3531 3530 0
-3531 -3474 0
3531 -3530 3474 0
3531 -3475 0
-3532 3531 0
-3532 -3475 0
3532 -3531 3475 0
3532 -3476 0
-3533 3532 0
-3533 -3476 0
3533 -3532 3476 0
3533 -3477 0
-3534 3533 0
-3534 -3477 0
3534 -3533 3477 0
3534 -3478 0
-3535 3534 0
-3535 -3478 0
3535 -3534 3478 0
3535 -3479 0
-3536 3535 0
-3536 -3479 0
3536 -3535 3479 0
3536 -3480 0
-3537 3536 0
-3537 -3480 0
3537 -3536 3480 0
3537 -3481 0
-3538 3537 0
-3538 -3481 0
3538 -3537 3481 0
3538 -3482 0
-3539 3538 0
-3539 -3482 0
3539 -3538 3482 0
3539 -3483 0
-3540 3539 0
-3540 -3483 0
3540 -3539 3483 0
3540 -3484 0
-3541 3540 0
-3541 -3484 0
3541 -3540 3484 0
3541 -3485 0
-3542 3541 0
-3542 -3485 0
3542 -3541 3485 0
3542 -3486 0
-3543 3542 0
-3543 -3486 0
3543 -3542 3486 0
3543 -3487 0
-3544 3543 0
-3544 -3487 0
3544 -3543 3487 0
3544 -3488 0
-3545 3544 0
-3545 -3488 0
3545 -3544 3488 0
3545 -3489 0
-3546 3545 0
-3546 -3489 0
3546 -3545 3489 0
3546 -3490 0
-3547 3546 0
-3547 -3490 0
3547 -3546 3490 0
3547 -3491 0
-3548 3547 0
-3548 -3491 0
3548 -3547 3491 0
3548 -3492 0
-3549 3548 0
-3549 -3492 0
3549 -3548 3492 0
3549 -3493 0
-3550 3549 0
-3550 -3493 0
3550 -3549 3493 0
3550 -3494 0
-3551 3550 0
-3551 -3494 0
3551 -3550 3494 0
3551 -3495 0
-3552 3551 0
-3552 -3495 0
3552 -3551 3495 0
3552 -3496 0
-3553 3552 0
-3553 -3496 0
3553 -3552 3496 0
3553 -3497 0
-3554 3553 0
-3554 -3497 0
3554 -3553 3497 0
3554 -3263 0
-3555 3554 0
-3555 -3263 0
3555 -3554 3263 0
3555 -3498 0
-3556 3555 0
-3556 -3498 0
3556 -3555 3498 0
3556 -3499 0
-3557 3556 0
-3557 -3499 0
3557 -3556 3499 0
3557 -3500 0
-3558 3557 0
-3558 -3500 0
3558 -3557 3500 0
3558 -3501 0
-3559 3558 0
-3559 -3501 0
3559 -3558 3501 0
3559 -3502 0
-3560 3559 0
-3560 -3502 0
3560 -3559 3502 0
3560 -3503 0
-3561 3560 0
-3561 -3503 0
3561 -3560 3503 0
3561 -3504 0
-3562 3561 0
-3562 -3504 0
3562 -3561 3504 0
3562 -3505 0
-3563 3562 0
-3563 -3505 0
3563 -3562 3505 0
3563 -3153 0
-3564 3563 0
-3564 -3153 0
3564 -3563 3153 0
3564 -3390 0
-3565 3564 0
-3565 -3390 0
3565 -3564 3390 0
3565 -3506 0
-3566 3565 0
-3566 -3506 0
3566 -3565 3506 0
3566 -3507 0
-3567 3566 0
-3567 -3507 0
3567 -3566 3507 0
3567 -3508 0
-3568 3567 0
-3568 -3508 0
3568 -3567 3508 0
3568 -3509 0
-3569 3568 0
-3569 -3509 0
3569 -3568 3509 0
3569 -3510 0
-3570 3569 0
-3570 -3510 0
3570 -3569 3510 0
3570 -3511 0
-3571 3570 0
-3571 -3511 0
3571 -3570 3511 0
3571 -3512 0
-3572 3571 0
-3572 -3512 0
3572 -3571 3512 0
-3573 4 0
-3573 34 0
3573 -4 -34 0
-3574 5 0
-3574 33 0
3574 -5 -33 0
-3575 6 0
-3575 53 0
3575 -6 -53 0
-3576 7 0
-3576 52 0
3576 -7 -52 0
-3577 8 0
-3577 51 0
3577 -8 -51 0
-3578 9 0
-3578 50 0
3578 -9 -50 0
-3579 10 0
-3579 49 0
3579 -10 -49 0
-3580 11 0
-3580 48 0
3580 -11 -48 0
-3581 9 0
-3581 45 0
3581 -9 -45 0
-3582 8 0
-3582 44 0
3582 -8 -44 0
-3583 7 0
-3583 43 0
3583 -7 -43 0
-3584 6 0
-3584 42 0
3584 -6 -42 0
-3585 5 0
-3585 41 0
3585 -5 -41 0
-3586 4 0
-3586 40 0
3586 -4 -40 0
-3587 3 0
-3587 39 0
3587 -3 -39 0
-3588 2 0
-3588 38 0
3588 -2 -38 0
-3589 12 0
-3589 68 0
3589 -12 -68 0
-3590 13 0
-3590 67 0
3590 -13 -67 0
-3591 14 0
-3591 66 0
3591 -14 -66 0
-3592 15 0
-3592 65 0
3592 -15 -65 0
-3593 16 0
-3593 64 0
3593 -16 -64 0
-3594 17 0
-3594 84 0
3594 -17 -84 0
-3595 18 0
-3595 83 0
3595 -18 -83 0
-3596 19 0
-3596 82 0
3596 -19 -82 0
-3597 20 0
-3597 81 0
3597 -20 -81 0
-3598 21 0
-3598 80 0
3598 -21 -80 0
-3599 22 0
-3599 79 0
3599 -22 -79 0
-3600 23 0
-3600 78 0
3600 -23 -78 0
-3601 24 0
-3601 77 0
3601 -24 -77 0
-3602 25 0
-3602 76 0
3602 -25 -76 0
-3603 26 0
-3603 75 0
3603 -26 -75 0
-3604 27 0
-3604 74 0
3604 -27 -74 0
-3605 28 0
-3605 73 0
3605 -28 -73 0
-3606 29 0
-3606 72 0
3606 -29 -72 0
-3607 30 0
-3607 71 0
3607 -30 -71 0
-3608 31 0
-3608 70 0
3608 -31 -70 0
-3609 32 0
-3609 69 0
3609 -32 -69 0
-3610 33 0
-3610 88 0
3610 -33 -88 0
-3611 34 0
-3611 87 0
3611 -34 -87 0
-3612 38 0
-3612 85 0
3612 -38 -85 0
-3613 39 0
-3613 86 0
3613 -39 -86 0
-3614 40 0
-3614 87 0
3614 -40 -87 0
-3615 41 0
-3615 88 0
3615 -41 -88 0
-3616 42 0
-3616 89 0
3616 -42 -89 0
-3617 43 0
-3617 90 0
3617 -43 -90 0
-3618 44 0
-3618 91 0
3618 -44 -91 0
-3619 45 0
-3619 92 0
3619 -45 -92 0
-3620 48 0
-3620 94 0
3620 -48 -94 0
-3621 49 0
-3621 93 0
3621 -49 -93 0
-3622 50 0
-3622 92 0
3622 -50 -92 0
-3623 51 0
-3623 91 0
3623 -51 -91 0
-3624 52 0
-3624 90 0
3624 -52 -90 0
-3625 53 0
-3625 89 0
3625 -53 -89 0
1 -3358 0
-3358 -3119 0
-3626 -3358 0
-3626 -3119 0
3626 3358 3119 0
3626 -3573 0
-3627 3626 0
-3627 -3573 0
3627 -3626 3573 0
3627 -3574 0
-3628 3627 0
-3628 -3574 0
3628 -3627 3574 0
3628 -3575 0
-3629 3628 0
-3629 -3575 0
3629 -3628 3575 0
3629 -3576 0
-3630 3629 0
-3630 -3576 0
3630 -3629 3576 0
3630 -3577 0
-3631 3630 0
-3631 -3577 0
3631 -3630 3577 0
3631 -3578 0
-3632 3631 0
-3632 -3578 0
3632 -3631 3578 0
3632 -3579 0
-3633 3632 0
-3633 -3579 0
3633 -3632 3579 0
3633 -3580 0
-3634 3633 0
-3634 -3580 0
3634 -3633 3580 0
3634 -3466 0
-3635 3634 0
-3635 -3466 0
3635 -3634 3466 0
3635 -3230 0
-3636 3635 0
-3636 -3230 0
3636 -3635 3230 0
3636 -3581 0
-3637 3636 0
-3637 -3581 0
3637 -3636 3581 0
3637 -3582 0
-3638 3637 0
-3638 -3582 0
3638 -3637 3582 0
3638 -3583 0
-3639 3638 0
-3639 -3583 0
3639 -3638 3583 0
3639 -3584 0
-3640 3639 0
-3640 -3584 0
3640 -3639 3584 0
3640 -3585 0
-3641 3640 0
-3641 -3585 0
3641 -3640 3585 0
3641 -3586 0
-3642 3641 0
-3642 -3586 0
3642 -3641 3586 0
3642 -3587 0
-3643 3642 0
-3643 -3587 0
3643 -3642 3587 0
3643 -3588 0
-3644 3643 0
-3644 -3588 0
3644 -3643 3588 0
3644 -3589 0
-3645 3644 0
-3645 -3589 0
3645 -3644 3589 0
3645 -3590 0
-3646 3645 0
-3646 -3590 0
3646 -3645 3590 0
3646 -3591 0
-3647 3646 0
-3647 -3591 0
3647 -3646 3591 0
3647 -3592 0
-3648 3647 0
-3648 -3592 0
3648 -3647 3592 0
3648 -3593 0
-3649 3648 0
-3649 -3593 0
3649 -3648 3593 0
3649 -3594 0
-3650 3649 0
-3650 -3594 0
3650 -3649 3594 0
3650 -3595 0
-3651 3650 0
-3651 -3595 0
3651 -3650 3595 0
3651 -3596 0
-3652 3651 0
-3652 -3596 0
3652 -3651 3596 0
3652 -3597 0
-3653 3652 0
-3653 -3597 0
3653 -3652 3597 0
3653 -3598 0
-3654 3653 0
-3654 -3598 0
3654 -3653 3598 0
3654 -3599 0
-3655 3654 0
-3655 -3599 0
3655 -3654 3599 0
3655 -3600 0
-3656 3655 0
-3656 -3600 0
3656 -3655 3600 0
3656 -3601 0
-3657 3656 0
-3657 -3601 0
3657 -3656 3601 0
3657 -3602 0
-3658 3657 0
-3658 -3602 0
3658 -3657 3602 0
3658 -3603 0
-3659 3658 0
-3659 -3603 0
3659 -3658 3603 0
3659 -3604 0
-3660 3659 0
-3660 -3604 0
3660 -3659 3604 0
3660 -3605 0
-3661 3660 0
-3661 -3605 0
3661 -3660 3605 0
3661 -3606 0
-3662 3661 0
-3662 -3606 0
3662 -3661 3606 0
3662 -3607 0
-3663 3662 0
-3663 -3607 0
3663 -3662 3607 0
3663 -3608 0
-3664 3663 0
-3664 -3608 0
3664 -3663 3608 0
3664 -3609 0
-3665 3664 0
-3665 -3609 0
3665 -3664 3609 0
3665 -3610 0
-3666 3665 0
-3666 -3610 0
3666 -3665 3610 0
3666 -3611 0
-3667 3666 0
-3667 -3611 0
3667 -3666 3611 0
3667 -3143 0
-3668 3667 0
-3668 -3143 0
3668 -3667 3143 0
3668 -3381 0
-3669 3668 0
-3669 -3381 0
3669 -3668 3381 0
3669 -3612 0
-3670 3669 0
-3670 -3612 0
3670 -3669 3612 0
3670 -3613 0
-3671 3670 0
-3671 -3613 0
3671 -3670 3613 0
3671 -3614 0
-3672 3671 0
-3672 -3614 0
3672 -3671 3614 0
3672 -3615 0
-3673 3672 0
-3673 -3615 0
3673 -3672 3615 0
3673 -3616 0
-3674 3673 0
-3674 -3616 0
3674 -3673 3616 0
3674 -3617 0
-3675 3674 0
-3675 -3617 0
3675 -3674 3617 0
3675 -3618 0
-3676 3675 0
-3676 -3618 0
3676 -3675 3618 0
3676 -3619 0
-3677 3676 0
-3677 -3619 0
3677 -3676 3619 0
3677 -3273 0
-3678 3677 0
-3678 -3273 0
3678 -3677 3273 0
3678 -3506 0
-3679 3678 0
-3679 -3506 0
3679 -3678 3506 0
3679 -3620 0
-3680 3679 0
-3680 -3620 0
3680 -3679 3620 0
3680 -3621 0
-3681 3680 0
-3681 -3621 0
3681 -3680 3621 0
3681 -3622 0
-3682 3681 0
-3682 -3622 0
3682 -3681 3622 0
3682 -3623 0
-3683 3682 0
-3683 -3623 0
3683 -3682 3623 0
3683 -3624 0
-3684 3683 0
-3684 -3624 0
3684 -3683 3624 0
3684 -3625 0
-3685 3684 0
-3685 -3625 0
3685 -3684 3625 0
-3686 4 0
-3686 35 0
3686 -4 -35 0
-3687 5 0
-3687 34 0
3687 -5 -34 0
-3688 6 0
-3688 33 0
3688 -6 -33 0
-3689 7 0
-3689 53 0
3689 -7 -53 0
-3690 8 0
-3690 52 0
3690 -8 -52 0
-3691 9 0
-3691 51 0
3691 -9 -51 0
-3692 10 0
-3692 50 0
3692 -10 -50 0
-3693 11 0
-3693 49 0
3693 -11 -49 0
-3694 8 0
-3694 45 0
3694 -8 -45 0
-3695 7 0
-3695 44 0
3695 -7 -44 0
-3696 6 0
-3696 43 0
3696 -6 -43 0
-3697 5 0
-3697 42 0
3697 -5 -42 0
-3698 4 0
-3698 41 0
3698 -4 -41 0
-3699 3 0
-3699 40 0
3699 -3 -40 0
-3700 2 0
-3700 39 0
3700 -2 -39 0
-3701 12 0
-3701 69 0
3701 -12 -69 0
-3702 13 0
-3702 68 0
3702 -13 -68 0
-3703 14 0
-3703 67 0
3703 -14 -67 0
-3704 15 0
-3704 66 0
3704 -15 -66 0
-3705 16 0
-3705 65 0
3705 -16 -65 0
-3706 17 0
-3706 64 0
3706 -17 -64 0
-3707 18 0
-3707 84 0
3707 -18 -84 0
-3708 19 0
-3708 83 0
3708 -19 -83 0
-3709 20 0
-3709 82 0
3709 -20 -82 0
-3710 21 0
-3710 81 0
3710 -21 -81 0
-3711 22 0
-3711 80 0
3711 -22 -80 0
-3712 23 0
-3712 79 0
3712 -23 -79 0
-3713 24 0
-3713 78 0
3713 -24 -78 0
-3714 25 0
-3714 77 0
3714 -25 -77 0
-3715 26 0
-3715 76 0
3715 -26 -76 0
-3716 27 0
-3716 75 0
3716 -27 -75 0
-3717 28 0
-3717 74 0
3717 -28 -74 0
-3718 29 0
-3718 73 0
3718 -29 -73 0
-3719 30 0
-3719 72 0
3719 -30 -72 0
-3720 31 0
-3720 71 0
3720 -31 -71 0
-3721 32 0
-3721 70 0
3721 -32 -70 0
-3722 33 0
-3722 89 0
3722 -33 -89 0
-3723 34 0
-3723 88 0
3723 -34 -88 0
-3724 35 0
-3724 87 0
3724 -35 -87 0
-3725 39 0
-3725 85 0
3725 -39 -85 0
-3726 40 0
-3726 86 0
3726 -40 -86 0
-3727 41 0
-3727 87 0
3727 -41 -87 0
-3728 42 0
-3728 88 0
3728 -42 -88 0
-3729 43 0
-3729 89 0
3729 -43 -89 0
-3730 44 0
-3730 90 0
3730 -44 -90 0
-3731 45 0
-3731 91 0
3731 -45 -91 0
-3732 49 0
-3732 94 0
3732 -49 -94 0
-3733 50 0
-3733 93 0
3733 -50 -93 0
-3734 51 0
-3734 92 0
3734 -51 -92 0
-3735 52 0
-3735 91 0
3735 -52 -91 0
-3736 53 0
-3736 90 0
3736 -53 -90 0
1 -3474 0
-3474 -3239 0
-3737 -3474 0
-3737 -3239 0
3737 3474 3239 0
3737 -3686 0
-3738 3737 0
-3738 -3686 0
3738 -3737 3686 0
3738 -3687 0
-3739 3738 0
-3739 -3687 0
3739 -3738 3687 0
3739 -3688 0
-3740 3739 0
-3740 -3688 0
3740 -3739 3688 0
3740 -3689 0
-3741 3740 0
-3741 -3689 0
3741 -3740 3689 0
3741 -3690 0
-3742 3741 0
-3742 -3690 0
3742 -3741 3690 0
3742 -3691 0
-3743 3742 0
-3743 -3691 0
3743 -3742 3691 0
3743 -3692 0
-3744 3743 0
-3744 -3692 0
3744 -3743 3692 0
3744 -3693 0
-3745 3744 0
-3745 -3693 0
3745 -3744 3693 0
3745 -3580 0
-3746 3745 0
-3746 -3580 0
3746 -3745 3580 0
3746 -3348 0
-3747 3746 0
-3747 -3348 0
3747 -3746 3348 0
3747 -3108 0
-3748 3747 0
-3748 -3108 0
3748 -3747 3108 0
3748 -3694 0
-3749 3748 0
-3749 -3694 0
3749 -3748 3694 0
3749 -3695 0
-3750 3749 0
-3750 -3695 0
3750 -3749 3695 0
3750 -3696 0
-3751 3750 0
-3751 -3696 0
3751 -3750 3696 0
3751 -3697 0
-3752 3751 0
-3752 -3697 0
3752 -3751 3697 0
3752 -3698 0
-3753 3752 0
-3753 -3698 0
3753 -3752 3698 0
3753 -3699 0
-3754 3753 0
-3754 -3699 0
3754 -3753 3699 0
3754 -3700 0
-3755 3754 0
-3755 -3700 0
3755 -3754 3700 0
3755 -3701 0
-3756 3755 0
-3756 -3701 0
3756 -3755 3701 0
3756 -3702 0
-3757 3756 0
-3757 -3702 0
3757 -3756 3702 0
3757 -3703 0
-3758 3757 0
-3758 -3703 0
3758 -3757 3703 0
3758 -3704 0
-3759 3758 0
-3759 -3704 0
3759 -3758 3704 0
3759 -3705 0
-3760 3759 0
-3760 -3705 0
3760 -3759 3705 0
3760 -3706 0
-3761 3760 0
-3761 -3706 0
3761 -3760 3706 0
3761 -3707 0
-3762 3761 0
-3762 -3707 0
3762 -3761 3707 0
3762 -3708 0
-3763 3762 0
-3763 -3708 0
3763 -3762 3708 0
3763 -3709 0
-3764 3763 0
-3764 -3709 0
3764 -3763 3709 0
3764 -3710 0
-3765 3764 0
-3765 -3710 0
3765 -3764 3710 0
3765 -3711 0
-3766 3765 0
-3766 -3711 0
3766 -3765 3711 0
3766 -3712 0
-3767 3766 0
-3767 -3712 0
3767 -3766 3712 0
3767 -3713 0
-3768 3767 0
-3768 -3713 0
3768 -3767 3713 0
3768 -3714 0
-3769 3768 0
-3769 -3714 0
3769 -3768 3714 0
3769 -3715 0
-3770 3769 0
-3770 -3715 0
3770 -3769 3715 0
3770 -3716 0
-3771 3770 0
-3771 -3716 0
3771 -3770 3716 0
3771 -3717 0
-3772 3771 0
-3772 -3717 0
3772 -3771 3717 0
3772 -3718 0
-3773 3772 0
-3773 -3718 0
3773 -3772 3718 0
3773 -3719 0
-3774 3773 0
-3774 -3719 0
3774 -3773 3719 0
3774 -3720 0
-3775 3774 0
-3775 -3720 0
3775 -3774 3720 0
3775 -3721 0
-3776 3775 0
-3776 -3721 0
3776 -3775 3721 0
3776 -3722 0
-3777 3776 0
-3777 -3722 0
3777 -3776 3722 0
3777 -3723 0
-3778 3777 0
-3778 -3723 0
3778 -3777 3723 0
3778 -3724 0
-3779 3778 0
-3779 -3724 0
3779 -3778 3724 0
3779 -3264 0
-3780 3779 0
-3780 -3264 0
3780 -3779 3264 0
3780 -3498 0
-3781 3780 0
-3781 -3498 0
3781 -3780 3498 0
3781 -3725 0
-3782 3781 0
-3782 -3725 0
3782 -3781 3725 0
3782 -3726 0
-3783 3782 0
-3783 -3726 0
3783 -3782 3726 0
3783 -3727 0
-3784 3783 0
-3784 -3727 0
3784 -3783 3727 0
3784 -3728 0
-3785 3784 0
-3785 -3728 0
3785 -3784 3728 0
3785 -3729 0
-3786 3785 0
-3786 -3729 0
3786 -3785 3729 0
3786 -3730 0
-3787 3786 0
-3787 -3730 0
3787 -3786 3730 0
3787 -3731 0
-3788 3787 0
-3788 -3731 0
3788 -3787 3731 0
3788 -3154 0
-3789 3788 0
-3789 -3154 0
3789 -3788 3154 0
3789 -3391 0
-3790 3789 0
-3790 -3391 0
3790 -3789 3391 0
3790 -3620 0
-3791 3790 0
-3791 -3620 0
3791 -3790 3620 0
3791 -3732 0
-3792 3791 0
-3792 -3732 0
3792 -3791 3732 0
3792 -3733 0
-3793 3792 0
-3793 -3733 0
3793 -3792 3733 0
3793 -3734 0
-3794 3793 0
-3794 -3734 0
3794 -3793 3734 0
3794 -3735 0
-3795 3794 0
-3795 -3735 0
3795 -3794 3735 0
3795 -3736 0
-3796 3795 0
-3796 -3736 0
3796 -3795 3736 0
-3797 5 0
-3797 35 0
3797 -5 -35 0
-3798 6 0
-3798 34 0
3798 -6 -34 0
-3799 7 0
-3799 33 0
3799 -7 -33 0
-3800 8 0
-3800 53 0
3800 -8 -53 0
-3801 9 0
-3801 52 0
3801 -9 -52 0
-3802 10 0
-3802 51 0
3802 -10 -51 0
-3803 11 0
-3803 50 0
3803 -11 -50 0
-3804 8 0
-3804 46 0
3804 -8 -46 0
-3805 7 0
-3805 45 0
3805 -7 -45 0
-3806 6 0
-3806 44 0
3806 -6 -44 0
-3807 5 0
-3807 43 0
3807 -5 -43 0
-3808 4 0
-3808 42 0
3808 -4 -42 0
-3809 3 0
-3809 41 0
3809 -3 -41 0
-3810 2 0
-3810 40 0
3810 -2 -40 0
-3811 12 0
-3811 70 0
3811 -12 -70 0
-3812 13 0
-3812 69 0
3812 -13 -69 0
-3813 14 0
-3813 68 0
3813 -14 -68 0
-3814 15 0
-3814 67 0
3814 -15 -67 0
-3815 16 0
-3815 66 0
3815 -16 -66 0
-3816 17 0
-3816 65 0
3816 -17 -65 0
-3817 18 0
-3817 64 0
3817 -18 -64 0
-3818 19 0
-3818 84 0
3818 -19 -84 0
-3819 20 0
-3819 83 0
3819 -20 -83 0
-3820 21 0
-3820 82 0
3820 -21 -82 0
-3821 22 0
-3821 81 0
3821 -22 -81 0
-3822 23 0
-3822 80 0
3822 -23 -80 0
-3823 24 0
-3823 79 0
3823 -24 -79 0
-3824 25 0
-3824 78 0
3824 -25 -78 0
-3825 26 0
-3825 77 0
3825 -26 -77 0
-3826 27 0
-3826 76 0
3826 -27 -76 0
-3827 28 0
-3827 75 0
3827 -28 -75 0
-3828 29 0
-3828 74 0
3828 -29 -74 0
-3829 30 0
-3829 73 0
3829 -30 -73 0
-3830 31 0
-3830 72 0
3830 -31 -72 0
-3831 32 0
-3831 71 0
3831 -32 -71 0
-3832 33 0
-3832 90 0
3832 -33 -90 0
-3833 34 0
-3833 89 0
3833 -34 -89 0
-3834 35 0
-3834 88 0
3834 -35 -88 0
-3835 40 0
-3835 85 0
3835 -40 -85 0
-3836 41 0
-3836 86 0
3836 -41 -86 0
-3837 42 0
-3837 87 0
3837 -42 -87 0
-3838 43 0
-3838 88 0
3838 -43 -88 0
-3839 44 0
-3839 89 0
3839 -44 -89 0
-3840 45 0
-3840 90 0
3840 -45 -90 0
-3841 46 0
-3841 91 0
3841 -46 -91 0
-3842 50 0
-3842 94 0
3842 -50 -94 0
-3843 51 0
-3843 93 0
3843 -51 -93 0
-3844 52 0
-3844 92 0
3844 -52 -92 0
-3845 53 0
-3845 91 0
3845 -53 -91 0
1 -3588 0
-3588 -3357 0
-3846 -3588 0
-3846 -3357 0
3846 3588 3357 0
3846 -3118 0
-3847 3846 0
-3847 -3118 0
3847 -3846 3118 0
3847 -3797 0
-3848 3847 0
-3848 -3797 0
3848 -3847 3797 0
3848 -3798 0
-3849 3848 0
-3849 -3798 0
3849 -3848 3798 0
3849 -3799 0
-3850 3849 0
-3850 -3799 0
3850 -3849 3799 0
3850 -3800 0
-3851 3850 0
-3851 -3800 0
3851 -3850 3800 0
3851 -3801 0
-3852 3851 0
-3852 -3801 0
3852 -3851 3801 0
3852 -3802 0
-3853 3852 0
-3853 -3802 0
3853 -3852 3802 0
3853 -3803 0
-3854 3853 0
-3854 -3803 0
3854 -3853 3803 0
3854 -3693 0
-3855 3854 0
-3855 -3693 0
3855 -3854 3693 0
3855 -3465 0
-3856 3855 0
-3856 -3465 0
3856 -3855 3465 0
3856 -3229 0
-3857 3856 0
-3857 -3229 0
3857 -3856 3229 0
3857 -3804 0
-3858 3857 0
-3858 -3804 0
3858 -3857 3804 0
3858 -3805 0
-3859 3858 0
-3859 -3805 0
3859 -3858 3805 0
3859 -3806 0
-3860 3859 0
-3860 -3806 0
3860 -3859 3806 0
3860 -3807 0
-3861 3860 0
-3861 -3807 0
3861 -3860 3807 0
3861 -3808 0
-3862 3861 0
-3862 -3808 0
3862 -3861 3808 0
3862 -3809 0
-3863 3862 0
-3863 -3809 0
3863 -3862 3809 0
3863 -3810 0
-3864 3863 0
-3864 -3810 0
3864 -3863 3810 0
3864 -3811 0
-3865 3864 0
-3865 -3811 0
3865 -3864 3811 0
3865 -3812 0
-3866 3865 0
-3866 -3812 0
3866 -3865 3812 0
3866 -3813 0
-3867 3866 0
-3867 -3813 0
3867 -3866 3813 0
3867 -3814 0
-3868 3867 0
-3868 -3814 0
3868 -3867 3814 0
3868 -3815 0
-3869 3868 0
-3869 -3815 0
3869 -3868 3815 0
3869 -3816 0
-3870 3869 0
-3870 -3816 0
3870 -3869 3816 0
3870 -3817 0
-3871 3870 0
-3871 -3817 0
3871 -3870 3817 0
3871 -3818 0
-3872 3871 0
-3872 -3818 0
3872 -3871 3818 0
3872 -3819 0
-3873 3872 0
-3873 -3819 0
3873 -3872 3819 0
3873 -3820 0
-3874 3873 0
-3874 -3820 0
3874 -3873 3820 0
3874 -3821 0
-3875 3874 0
-3875 -3821 0
3875 -3874 3821 0
3875 -3822 0
-3876 3875 0
-3876 -3822 0
3876 -3875 3822 0
3876 -3823 0
-3877 3876 0
-3877 -3823 0
3877 -3876 3823 0
3877 -3824 0
-3878 3877 0
-3878 -3824 0
3878 -3877 3824 0
3878 -3825 0
-3879 3878 0
-3879 -3825 0
3879 -3878 3825 0
3879 -3826 0
-3880 3879 0
-3880 -3826 0
3880 -3879 3826 0
3880 -3827 0
-3881 3880 0
-3881 -3827 0
3881 -3880 3827 0
3881 -3828 0
-3882 3881 0
-3882 -3828 0
3882 -3881 3828 0
3882 -3829 0
-3883 3882 0
-3883 -3829 0
3883 -3882 3829 0
3883 -3830 0
-3884 3883 0
-3884 -3830 0
3884 -3883 3830 0
3884 -3831 0
-3885 3884 0
-3885 -3831 0
3885 -3884 3831 0
3885 -3832 0
-3886 3885 0
-3886 -3832 0
3886 -3885 3832 0
3886 -3833 0
-3887 3886 0
-3887 -3833 0
3887 -3886 3833 0
3887 -3834 0
-3888 3887 0
-3888 -3834 0
3888 -3887 3834 0
3888 -3144 0
-3889 3888 0
-3889 -3144 0
3889 -3888 3144 0
3889 -3382 0
-3890 3889 0
-3890 -3382 0
3890 -3889 3382 0
3890 -3612 0
-3891 3890 0
-3891 -3612 0
3891 -3890 3612 0
3891 -3835 0
-3892 3891 0
-3892 -3835 0
3892 -3891 3835 0
3892 -3836 0
-3893 3892 0
-3893 -3836 0
3893 -3892 3836 0
3893 -3837 0
-3894 3893 0
-3894 -3837 0
3894 -3893 3837 0
3894 -3838 0
-3895 3894 0
-3895 -3838 0
3895 -3894 3838 0
3895 -3839 0
-3896 3895 0
-3896 -3839 0
3896 -3895 3839 0
3896 -3840 0
-3897 3896 0
-3897 -3840 0
3897 -3896 3840 0
3897 -3841 0
-3898 3897 0
-3898 -3841 0
3898 -3897 3841 0
3898 -3274 0
-3899 3898 0
-3899 -3274 0
3899 -3898 3274 0
3899 -3507 0
-3900 3899 0
-3900 -3507 0
3900 -3899 3507 0
3900 -3732 0
-3901 3900 0
-3901 -3732 0
3901 -3900 3732 0
3901 -3842 0
-3902 3901 0
-3902 -3842 0
3902 -3901 3842 0
3902 -3843 0
-3903 3902 0
-3903 -3843 0
3903 -3902 3843 0
3903 -3844 0
-3904 3903 0
-3904 -3844 0
3904 -3903 3844 0
3904 -3845 0
-3905 3904 0
-3905 -3845 0
3905 -3904 3845 0
-3906 5 0
-3906 36 0
3906 -5 -36 0
-3907 6 0
-3907 35 0
3907 -6 -35 0
-3908 7 0
-3908 34 0
3908 -7 -34 0
-3909 8 0
-3909 33 0
3909 -8 -33 0
-3910 9 0
-3910 53 0
3910 -9 -53 0
-3911 10 0
-3911 52 0
3911 -10 -52 0
-3912 11 0
-3912 51 0
3912 -11 -51 0
-3913 7 0
-3913 46 0
3913 -7 -46 0
-3914 6 0
-3914 45 0
3914 -6 -45 0
-3915 5 0
-3915 44 0
3915 -5 -44 0
-3916 4 0
-3916 43 0
3916 -4 -43 0
-3917 3 0
-3917 42 0
3917 -3 -42 0
-3918 2 0
-3918 41 0
3918 -2 -41 0
-3919 12 0
-3919 71 0
3919 -12 -71 0
-3920 13 0
-3920 70 0
3920 -13 -70 0
-3921 14 0
-3921 69 0
3921 -14 -69 0
-3922 15 0
-3922 68 0
3922 -15 -68 0
-3923 16 0
-3923 67 0
3923 -16 -67 0
-3924 17 0
-3924 66 0
3924 -17 -66 0
-3925 18 0
-3925 65 0
3925 -18 -65 0
-3926 19 0
-3926 64 0
3926 -19 -64 0
-3927 20 0
-3927 84 0
3927 -20 -84 0
-3928 21 0
-3928 83 0
3928 -21 -83 0
-3929 22 0
-3929 82 0
3929 -22 -82 0
-3930 23 0
-3930 81 0
3930 -23 -81 0
-3931 24 0
-3931 80 0
3931 -24 -80 0
-3932 25 0
-3932 79 0
3932 -25 -79 0
-3933 26 0
-3933 78 0
3933 -26 -78 0
-3934 27 0
-3934 77 0
3934 -27 -77 0
-3935 28 0
-3935 76 0
3935 -28 -76 0
-3936 29 0
-3936 75 0
3936 -29 -75 0
-3937 30 0
-3937 74 0
3937 -30 -74 0
-3938 31 0
-3938 73 0
3938 -31 -73 0
-3939 32 0
-3939 72 0
3939 -32 -72 0
-3940 33 0
-3940 91 0
3940 -33 -91 0
-3941 34 0
-3941 90 0
3941 -34 -90 0
-3942 35 0
-3942 89 0
3942 -35 -89 0
-3943 36 0
-3943 88 0
3943 -36 -88 0
-3944 41 0
-3944 85 0
3944 -41 -85 0
-3945 42 0
-3945 86 0
3945 -42 -86 0
-3946 43 0
-3946 87 0
3946 -43 -87 0
-3947 44 0
-3947 88 0
3947 -44 -88 0
-3948 45 0
-3948 89 0
3948 -45 -89 0
-3949 46 0
-3949 90 0
3949 -46 -90 0
-3950 51 0
-3950 94 0
3950 -51 -94 0
-3951 52 0
-3951 93 0
3951 -52 -93 0
-3952 53 0
-3952 92 0
3952 -53 -92 0
1 -3700 0
-3700 -3473 0
-3953 -3700 0
-3953 -3473 0
3953 3700 3473 0
3953 -3238 0
-3954 3953 0
-3954 -3238 0
3954 -3953 3238 0
3954 -3906 0
-3955 3954 0
-3955 -3906 0
3955 -3954 3906 0
3955 -3907 0
-3956 3955 0
-3956 -3907 0
3956 -3955 3907 0
3956 -3908 0
-3957 3956 0
-3957 -3908 0
3957 -3956 3908 0
3957 -3909 0
-3958 3957 0
-3958 -3909 0
3958 -3957 3909 0
3958 -3910 0
-3959 3958 0
-3959 -3910 0
3959 -3958 3910 0
3959 -3911 0
-3960 3959 0
-3960 -3911 0
3960 -3959 3911 0
3960 -3912 0
-3961 3960 0
-3961 -3912 0
3961 -3960 3912 0
3961 -3803 0
-3962 3961 0
-3962 -3803 0
3962 -3961 3803 0
3962 -3579 0
-3963 3962 0
-3963 -3579 0
3963 -3962 3579 0
3963 -3347 0
-3964 3963 0
-3964 -3347 0
3964 -3963 3347 0
3964 -3107 0
-3965 3964 0
-3965 -3107 0
3965 -3964 3107 0
3965 -3913 0
-3966 3965 0
-3966 -3913 0
3966 -3965 3913 0
3966 -3914 0
-3967 3966 0
-3967 -3914 0
3967 -3966 3914 0
3967 -3915 0
-3968 3967 0
-3968 -3915 0
3968 -3967 3915 0
3968 -3916 0
-3969 3968 0
-3969 -3916 0
3969 -3968 3916 0
3969 -3917 0
-3970 3969 0
-3970 -3917 0
3970 -3969 3917 0
3970 -3918 0
-3971 3970 0
-3971 -3918 0
3971 -3970 3918 0
3971 -3919 0
-3972 3971 0
-3972 -3919 0
3972 -3971 3919 0
3972 -3920 0
-3973 3972 0
-3973 -3920 0
3973 -3972 3920 0
3973 -3921 0
-3974 3973 0
-3974 -3921 0
3974 -3973 3921 0
3974 -3922 0
-3975 3974 0
-3975 -3922 0
3975 -3974 3922 0
3975 -3923 0
-3976 3975 0
-3976 -3923 0
3976 -3975 3923 0
3976 -3924 0
-3977 3976 0
-3977 -3924 0
3977 -3976 3924 0
3977 -3925 0
-3978 3977 0
-3978 -3925 0
3978 -3977 3925 0
3978 -3926 0
-3979 3978 0
-3979 -3926 0
3979 -3978 3926 0
3979 -3927 0
-3980 3979 0
-3980 -3927 0
3980 -3979 3927 0
3980 -3928 0
-3981 3980 0
-3981 -3928 0
3981 -3980 3928 0
3981 -3929 0
-3982 3981 0
-3982 -3929 0
3982 -3981 3929 0
3982 -3930 0
-3983 3982 0
-3983 -3930 0
3983 -3982 3930 0
3983 -3931 0
-3984 3983 0
-3984 -3931 0
3984 -3983 3931 0
3984 -3932 0
-3985 3984 0
-3985 -3932 0
3985 -3984 3932 0
3985 -3933 0
-3986 3985 0
-3986 -3933 0
3986 -3985 3933 0
3986 -3934 0
-3987 3986 0
-3987 -3934 0
3987 -3986 3934 0
3987 -3935 0
-3988 3987 0
-3988 -3935 0
3988 -3987 3935 0
3988 -3936 0
-3989 3988 0
-3989 -3936 0
3989 -3988 3936 0
3989 -3937 0
-3990 3989 0
-3990 -3937 0
3990 -3989 3937 0
3990 -3938 0
-3991 3990 0
-3991 -3938 0
3991 -3990 3938 0
3991 -3939 0
-3992 3991 0
-3992 -3939 0
3992 -3991 3939 0
3992 -3940 0
-3993 3992 0
-3993 -3940 0
3993 -3992 3940 0
3993 -3941 0
-3994 3993 0
-3994 -3941 0
3994 -3993 3941 0
3994 -3942 0
-3995 3994 0
-3995 -3942 0
3995 -3994 3942 0
3995 -3943 0
-3996 3995 0
-3996 -3943 0
3996 -3995 3943 0
3996 -3265 0
-3997 3996 0
-3997 -3265 0
3997 -3996 3265 0
3997 -3499 0
-3998 3997 0
-3998 -3499 0
3998 -3997 3499 0
3998 -3725 0
-3999 3998 0
-3999 -3725 0
3999 -3998 3725 0
3999 -3944 0
-4000 3999 0
-4000 -3944 0
4000 -3999 3944 0
4000 -3945 0
-4001 4000 0
-4001 -3945 0
4001 -4000 3945 0
4001 -3946 0
-4002 4001 0
-4002 -3946 0
4002 -4001 3946 0
4002 -3947 0
-4003 4002 0
-4003 -3947 0
4003 -4002 3947 0
4003 -3948 0
-4004 4003 0
-4004 -3948 0
4004 -4003 3948 0
4004 -3949 0
-4005 4004 0
-4005 -3949 0
4005 -4004 3949 0
4005 -3155 0
-4006 4005 0
-4006 -3155 0
4006 -4005 3155 0
4006 -3392 0
-4007 4006 0
-4007 -3392 0
4007 -4006 3392 0
4007 -3621 0
-4008 4007 0
-4008 -3621 0
4008 -4007 3621 0
4008 -3842 0
-4009 4008 0
-4009 -3842 0
4009 -4008 3842 0
4009 -3950 0
-4010 4009 0
-4010 -3950 0
4010 -4009 3950 0
4010 -3951 0
-4011 4010 0
-4011 -3951 0
4011 -4010 3951 0
4011 -3952 0
-4012 4011 0
-4012 -3952 0
4012 -4011 3952 0
-4013 6 0
-4013 36 0
4013 -6 -36 0
-4014 7 0
-4014 35 0
4014 -7 -35 0
-4015 8 0
-4015 34 0
4015 -8 -34 0
-4016 9 0
-4016 33 0
4016 -9 -33 0
-4017 10 0
-4017 53 0
4017 -10 -53 0
-4018 11 0
-4018 52 0
4018 -11 -52 0
-4019 7 0
-4019 47 0
4019 -7 -47 0
-4020 6 0
-4020 46 0
4020 -6 -46 0
-4021 5 0
-4021 45 0
4021 -5 -45 0
-4022 4 0
-4022 44 0
4022 -4 -44 0
-4023 3 0
-4023 43 0
4023 -3 -43 0
-4024 2 0
-4024 42 0
4024 -2 -42 0
-4025 12 0
-4025 72 0
4025 -12 -72 0
-4026 13 0
-4026 71 0
4026 -13 -71 0
-4027 14 0
-4027 70 0
4027 -14 -70 0
-4028 15 0
-4028 69 0
4028 -15 -69 0
-4029 16 0
-4029 68 0
4029 -16 -68 0
-4030 17 0
-4030 67 0
4030 -17 -67 0
-4031 18 0
-4031 66 0
4031 -18 -66 0
-4032 19 0
-4032 65 0
4032 -19 -65 0
-4033 20 0
-4033 64 0
4033 -20 -64 0
-4034 21 0
-4034 84 0
4034 -21 -84 0
-4035 22 0
-4035 83 0
4035 -22 -83 0
-4036 23 0
-4036 82 0
4036 -23 -82 0
-4037 24 0
-4037 81 0
4037 -24 -81 0
-4038 25 0
-4038 80 0
4038 -25 -80 0
-4039 26 0
-4039 79 0
4039 -26 -79 0
-4040 27 0
-4040 78 0
4040 -27 -78 0
-4041 28 0
-4041 77 0
4041 -28 -77 0
-4042 29 0
-4042 76 0
4042 -29 -76 0
-4043 30 0
-4043 75 0
4043 -30 -75 0
-4044 31 0
-4044 74 0
4044 -31 -74 0
-4045 32 0
-4045 73 0
4045 -32 -73 0
-4046 33 0
-4046 92 0
4046 -33 -92 0
-4047 34 0
-4047 91 0
4047 -34 -91 0
-4048 35 0
-4048 90 0
4048 -35 -90 0
-4049 36 0
-4049 89 0
4049 -36 -89 0
-4050 42 0
-4050 85 0
4050 -42 -85 0
-4051 43 0
-4051 86 0
4051 -43 -86 0
-4052 44 0
-4052 87 0
4052 -44 -87 0
-4053 45 0
-4053 88 0
4053 -45 -88 0
-4054 46 0
-4054 89 0
4054 -46 -89 0
-4055 47 0
-4055 90 0
4055 -47 -90 0
-4056 52 0
-4056 94 0
4056 -52 -94 0
-4057 53 0
-4057 93 0
4057 -53 -93 0
1 -3810 0
-3810 -3587 0
-4058 -3810 0
-4058 -3587 0
4058 3810 3587 0
4058 -3356 0
-4059 4058 0
-4059 -3356 0
4059 -4058 3356 0
4059 -3117 0
-4060 4059 0
-4060 -3117 0
4060 -4059 3117 0
4060 -4013 0
-4061 4060 0
-4061 -4013 0
4061 -4060 4013 0
4061 -4014 0
-4062 4061 0
-4062 -4014 0
4062 -4061 4014 0
4062 -4015 0
-4063 4062 0
-4063 -4015 0
4063 -4062 4015 0
4063 -4016 0
-4064 4063 0
-4064 -4016 0
4064 -4063 4016 0
4064 -4017 0
-4065 4064 0
-4065 -4017 0
4065 -4064 4017 0
4065 -4018 0
-4066 4065 0
-4066 -4018 0
4066 -4065 4018 0
4066 -3912 0
-4067 4066 0
-4067 -3912 0
4067 -4066 3912 0
4067 -3692 0
-4068 4067 0
-4068 -3692 0
4068 -4067 3692 0
4068 -3464 0
-4069 4068 0
-4069 -3464 0
4069 -4068 3464 0
4069 -3228 0
-4070 4069 0
-4070 -3228 0
4070 -4069 3228 0
4070 -4019 0
-4071 4070 0
-4071 -4019 0
4071 -4070 4019 0
4071 -4020 0
-4072 4071 0
-4072 -4020 0
4072 -4071 4020 0
4072 -4021 0
-4073 4072 0
-4073 -4021 0
4073 -4072 4021 0
4073 -4022 0
-4074 4073 0
-4074 -4022 0
4074 -4073 4022 0
4074 -4023 0
-4075 4074 0
-4075 -4023 0
4075 -4074 4023 0
4075 -4024 0
-4076 4075 0
-4076 -4024 0
4076 -4075 4024 0
4076 -4025 0
-4077 4076 0
-4077 -4025 0
4077 -4076 4025 0
4077 -4026 0
-4078 4077 0
-4078 -4026 0
4078 -4077 4026 0
4078 -4027 0
-4079 4078 0
-4079 -4027 0
4079 -4078 4027 0
4079 -4028 0
-4080 4079 0
-4080 -4028 0
4080 -4079 4028 0
4080 -4029 0
-4081 4080 0
-4081 -4029 0
4081 -4080 4029 0
4081 -4030 0
-4082 4081 0
-4082 -4030 0
4082 -4081 4030 0
4082 -4031 0
-4083 4082 0
-4083 -4031 0
4083 -4082 4031 0
4083 -4032 0
-4084 4083 0
-4084 -4032 0
4084 -4083 4032 0
4084 -4033 0
-4085 4084 0
-4085 -4033 0
4085 -4084 4033 0
4085 -4034 0
-4086 4085 0
-4086 -4034 0
4086 -4085 4034 0
4086 -4035 0
-4087 4086 0
-4087 -4035 0
4087 -4086 4035 0
4087 -4036 0
-4088 4087 0
-4088 -4036 0
4088 -4087 4036 0
4088 -4037 0
-4089 4088 0
-4089 -4037 0
4089 -4088 4037 0
4089 -4038 0
-4090 4089 0
-4090 -4038 0
4090 -4089 4038 0
4090 -4039 0
-4091 4090 0
-4091 -4039 0
4091 -4090 4039 0
4091 -4040 0
-4092 4091 0
-4092 -4040 0
4092 -4091 4040 0
4092 -4041 0
-4093 4092 0
-4093 -4041 0
4093 -4092 4041 0
4093 -4042 0
-4094 4093 0
-4094 -4042 0
4094 -4093 4042 0
4094 -4043 0
-4095 4094 0
-4095 -4043 0
4095 -4094 4043 0
4095 -4044 0
-4096 4095 0
-4096 -4044 0
4096 -4095 4044 0
4096 -4045 0
-4097 4096 0
-4097 -4045 0
4097 -4096 4045 0
4097 -4046 0
-4098 4097 0
-4098 -4046 0
4098 -4097 4046 0
4098 -4047 0
-4099 4098 0
-4099 -4047 0
4099 -4098 4047 0
4099 -4048 0
-4100 4099 0
-4100 -4048 0
4100 -4099 4048 0
4100 -4049 0
-4101 4100 0
-4101 -4049 0
4101 -4100 4049 0
4101 -3145 0
-4102 4101 0
-4102 -3145 0
4102 -4101 3145 0
4102 -3383 0
-4103 4102 0
-4103 -3383 0
4103 -4102 3383 0
4103 -3613 0
-4104 4103 0
-4104 -3613 0
4104 -4103 3613 0
4104 -3835 0
-4105 4104 0
-4105 -3835 0
4105 -4104 3835 0
4105 -4050 0
-4106 4105 0
-4106 -4050 0
4106 -4105 4050 0
4106 -4051 0
-4107 4106 0
-4107 -4051 0
4107 -4106 4051 0
4107 -4052 0
-4108 4107 0
-4108 -4052 0
4108 -4107 4052 0
4108 -4053 0
-4109 4108 0
-4109 -4053 0
4109 -4108 4053 0
4109 -4054 0
-4110 4109 0
-4110 -4054 0
4110 -4109 4054 0
4110 -4055 0
-4111 4110 0
-4111 -4055 0
4111 -4110 4055 0
4111 -3275 0
-4112 4111 0
-4112 -3275 0
4112 -4111 3275 0
4112 -3508 0
-4113 4112 0
-4113 -3508 0
4113 -4112 3508 0
4113 -3733 0
-4114 4113 0
-4114 -3733 0
4114 -4113 3733 0
4114 -3950 0
-4115 4114 0
-4115 -3950 0
4115 -4114 3950 0
4115 -4056 0
-4116 4115 0
-4116 -4056 0
4116 -4115 4056 0
4116 -4057 0
-4117 4116 0
-4117 -4057 0
4117 -4116 4057 0
-4118 6 0
-4118 37 0
4118 -6 -37 0
-4119 7 0
-4119 36 0
4119 -7 -36 0
-4120 8 0
-4120 35 0
4120 -8 -35 0
-4121 9 0
-4121 34 0
4121 -9 -34 0
-4122 10 0
-4122 33 0
4122 -10 -33 0
-4123 11 0
-4123 53 0
4123 -11 -53 0
-4124 6 0
-4124 47 0
4124 -6 -47 0
-4125 5 0
-4125 46 0
4125 -5 -46 0
-4126 4 0
-4126 45 0
4126 -4 -45 0
-4127 3 0
-4127 44 0
4127 -3 -44 0
-4128 2 0
-4128 43 0
4128 -2 -43 0
-4129 12 0
-4129 73 0
4129 -12 -73 0
-4130 13 0
-4130 72 0
4130 -13 -72 0
-4131 14 0
-4131 71 0
4131 -14 -71 0
-4132 15 0
-4132 70 0
4132 -15 -70 0
-4133 16 0
-4133 69 0
4133 -16 -69 0
-4134 17 0
-4134 68 0
4134 -17 -68 0
-4135 18 0
-4135 67 0
4135 -18 -67 0
-4136 19 0
-4136 66 0
4136 -19 -66 0
-4137 20 0
-4137 65 0
4137 -20 -65 0
-4138 21 0
-4138 64 0
4138 -21 -64 0
-4139 22 0
-4139 84 0
4139 -22 -84 0
-4140 23 0
-4140 83 0
4140 -23 -83 0
-4141 24 0
-4141 82 0
4141 -24 -82 0
-4142 25 0
-4142 81 0
4142 -25 -81 0
-4143 26 0
-4143 80 0
4143 -26 -80 0
-4144 27 0
-4144 79 0
4144 -27 -79 0
-4145 28 0
-4145 78 0
4145 -28 -78 0
-4146 29 0
-4146 77 0
4146 -29 -77 0
-4147 30 0
-4147 76 0
4147 -30 -76 0
-4148 31 0
-4148 75 0
4148 -31 -75 0
-4149 32 0
-4149 74 0
4149 -32 -74 0
-4150 33 0
-4150 93 0
4150 -33 -93 0
-4151 34 0
-4151 92 0
4151 -34 -92 0
-4152 35 0
-4152 91 0
4152 -35 -91 0
-4153 36 0
-4153 90 0
4153 -36 -90 0
-4154 37 0
-4154 89 0
4154 -37 -89 0
-4155 43 0
-4155 85 0
4155 -43 -85 0
-4156 44 0
-4156 86 0
4156 -44 -86 0
-4157 45 0
-4157 87 0
4157 -45 -87 0
-4158 46 0
-4158 88 0
4158 -46 -88 0
-4159 47 0
-4159 89 0
4159 -47 -89 0
-4160 53 0
-4160 94 0
4160 -53 -94 0
1 -3918 0
-3918 -3699 0
-4161 -3918 0
-4161 -3699 0
4161 3918 3699 0
4161 -3472 0
-4162 4161 0
-4162 -3472 0
4162 -4161 3472 0
4162 -3237 0
-4163 4162 0
-4163 -3237 0
4163 -4162 3237 0
4163 -4118 0
-4164 4163 0
-4164 -4118 0
4164 -4163 4118 0
4164 -4119 0
-4165 4164 0
-4165 -4119 0
4165 -4164 4119 0
4165 -4120 0
-4166 4165 0
-4166 -4120 0
4166 -4165 4120 0
4166 -4121 0
-4167 4166 0
-4167 -4121 0
4167 -4166 4121 0
4167 -4122 0
-4168 4167 0
-4168 -4122 0
4168 -4167 4122 0
4168 -4123 0
-4169 4168 0
-4169 -4123 0
4169 -4168 4123 0
4169 -4018 0
-4170 4169 0
-4170 -4018 0
4170 -4169 4018 0
4170 -3802 0
-4171 4170 0
-4171 -3802 0
4171 -4170 3802 0
4171 -3578 0
-4172 4171 0
-4172 -3578 0
4172 -4171 3578 0
4172 -3346 0
-4173 4172 0
-4173 -3346 0
4173 -4172 3346 0
4173 -3106 0
-4174 4173 0
-4174 -3106 0
4174 -4173 3106 0
4174 -4124 0
-4175 4174 0
-4175 -4124 0
4175 -4174 4124 0
4175 -4125 0
-4176 4175 0
-4176 -4125 0
4176 -4175 4125 0
4176 -4126 0
-4177 4176 0
-4177 -4126 0
4177 -4176 4126 0
4177 -4127 0
-4178 4177 0
-4178 -4127 0
4178 -4177 4127 0
4178 -4128 0
-4179 4178 0
-4179 -4128 0
4179 -4178 4128 0
4179 -4129 0
-4180 4179 0
-4180 -4129 0
4180 -4179 4129 0
4180 -4130 0
-4181 4180 0
-4181 -4130 0
4181 -4180 4130 0
4181 -4131 0
-4182 4181 0
-4182 -4131 0
4182 -4181 4131 0
4182 -4132 0
-4183 4182 0
-4183 -4132 0
4183 -4182 4132 0
4183 -4133 0
-4184 4183 0
-4184 -4133 0
4184 -4183 4133 0
4184 -4134 0
-4185 4184 0
-4185 -4134 0
4185 -4184 4134 0
4185 -4135 0
-4186 4185 0
-4186 -4135 0
4186 -4185 4135 0
4186 -4136 0
-4187 4186 0
-4187 -4136 0
4187 -4186 4136 0
4187 -4137 0
-4188 4187 0
-4188 -4137 0
4188 -4187 4137 0
4188 -4138 0
-4189 4188 0
-4189 -4138 0
4189 -4188 4138 0
4189 -4139 0
-4190 4189 0
-4190 -4139 0
4190 -4189 4139 0
4190 -4140 0
-4191 4190 0
-4191 -4140 0
4191 -4190 4140 0
4191 -4141 0
-4192 4191 0
-4192 -4141 0
4192 -4191 4141 0
4192 -4142 0
-4193 4192 0
-4193 -4142 0
4193 -4192 4142 0
4193 -4143 0
-4194 4193 0
-4194 -4143 0
4194 -4193 4143 0
4194 -4144 0
-4195 4194 0
-4195 -4144 0
4195 -4194 4144 0
4195 -4145 0
-4196 4195 0
-4196 -4145 0
4196 -4195 4145 0
4196 -4146 0
-4197 4196 0
-4197 -4146 0
4197 -4196 4146 0
4197 -4147 0
-4198 4197 0
-4198 -4147 0
4198 -4197 4147 0
4198 -4148 0
-4199 4198 0
-4199 -4148 0
4199 -4198 4148 0
4199 -4149 0
-4200 4199 0
-4200 -4149 0
4200 -4199 4149 0
4200 -4150 0
-4201 4200 0
-4201 -4150 0
4201 -4200 4150 0
4201 -4151 0
-4202 4201 0
-4202 -4151 0
4202 -4201 4151 0
4202 -4152 0
-4203 4202 0
-4203 -4152 0
4203 -4202 4152 0
4203 -4153 0
-4204 4203 0
-4204 -4153 0
4204 -4203 4153 0
4204 -4154 0
-4205 4204 0
-4205 -4154 0
4205 -4204 4154 0
4205 -3266 0
-4206 4205 0
-4206 -3266 0
4206 -4205 3266 0
4206 -3500 0
-4207 4206 0
-4207 -3500 0
4207 -4206 3500 0
4207 -3726 0
-4208 4207 0
-4208 -3726 0
4208 -4207 3726 0
4208 -3944 0
-4209 4208 0
-4209 -3944 0
4209 -4208 3944 0
4209 -4155 0
-4210 4209 0
-4210 -4155 0
4210 -4209 4155 0
4210 -4156 0
-4211 4210 0
-4211 -4156 0
4211 -4210 4156 0
4211 -4157 0
-4212 4211 0
-4212 -4157 0
4212 -4211 4157 0
4212 -4158 0
-4213 4212 0
-4213 -4158 0
4213 -4212 4158 0
4213 -4159 0
-4214 4213 0
-4214 -4159 0
4214 -4213 4159 0
4214 -3156 0
-4215 4214 0
-4215 -3156 0
4215 -4214 3156 0
4215 -3393 0
-4216 4215 0
-4216 -3393 0
4216 -4215 3393 0
4216 -3622 0
-4217 4216 0
-4217 -3622 0
4217 -4216 3622 0
4217 -3843 0
-4218 4217 0
-4218 -3843 0
4218 -4217 3843 0
4218 -4056 0
-4219 4218 0
-4219 -4056 0
4219 -4218 4056 0
4219 -4160 0
-4220 4219 0
-4220 -4160 0
4220 -4219 4160 0
-4221 7 0
-4221 37 0
4221 -7 -37 0
-4222 8 0
-4222 36 0
4222 -8 -36 0
-4223 9 0
-4223 35 0
4223 -9 -35 0
-4224 10 0
-4224 34 0
4224 -10 -34 0
-4225 11 0
-4225 33 0
4225 -11 -33 0
-4226 6 0
-4226 48 0
4226 -6 -48 0
-4227 5 0
-4227 47 0
4227 -5 -47 0
-4228 4 0
-4228 46 0
4228 -4 -46 0
-4229 3 0
-4229 45 0
4229 -3 -45 0
-4230 2 0
-4230 44 0
4230 -2 -44 0
-4231 12 0
-4231 74 0
4231 -12 -74 0
-4232 13 0
-4232 73 0
4232 -13 -73 0
-4233 14 0
-4233 72 0
4233 -14 -72 0
-4234 15 0
-4234 71 0
4234 -15 -71 0
-4235 16 0
-4235 70 0
4235 -16 -70 0
-4236 17 0
-4236 69 0
4236 -17 -69 0
-4237 18 0
-4237 68 0
4237 -18 -68 0
-4238 19 0
-4238 67 0
4238 -19 -67 0
-4239 20 0
-4239 66 0
4239 -20 -66 0
-4240 21 0
-4240 65 0
4240 -21 -65 0
-4241 22 0
-4241 64 0
4241 -22 -64 0
-4242 23 0
-4242 84 0
4242 -23 -84 0
-4243 24 0
-4243 83 0
4243 -24 -83 0
-4244 25 0
-4244 82 0
4244 -25 -82 0
-4245 26 0
-4245 81 0
4245 -26 -81 0
-4246 27 0
-4246 80 0
4246 -27 -80 0
-4247 28 0
-4247 79 0
4247 -28 -79 0
-4248 29 0
-4248 78 0
4248 -29 -78 0
-4249 30 0
-4249 77 0
4249 -30 -77 0
-4250 31 0
-4250 76 0
4250 -31 -76 0
-4251 32 0
-4251 75 0
4251 -32 -75 0
-4252 33 0
-4252 94 0
4252 -33 -94 0
-4253 34 0
-4253 93 0
4253 -34 -93 0
-4254 35 0
-4254 92 0
4254 -35 -92 0
-4255 36 0
-4255 91 0
4255 -36 -91 0
-4256 37 0
-4256 90 0
4256 -37 -90 0
-4257 44 0
-4257 85 0
4257 -44 -85 0
-4258 45 0
-4258 86 0
4258 -45 -86 0
-4259 46 0
-4259 87 0
4259 -46 -87 0
-4260 47 0
-4260 88 0
4260 -47 -88 0
-4261 48 0
-4261 89 0
4261 -48 -89 0
1 -4024 0
-4024 -3809 0
-4262 -4024 0
-4262 -3809 0
4262 4024 3809 0
4262 -3586 0
-4263 4262 0
-4263 -3586 0
4263 -4262 3586 0
4263 -3355 0
-4264 4263 0
-4264 -3355 0
4264 -4263 3355 0
4264 -3116 0
-4265 4264 0
-4265 -3116 0
4265 -4264 3116 0
4265 -4221 0
-4266 4265 0
-4266 -4221 0
4266 -4265 4221 0
4266 -4222 0
-4267 4266 0
-4267 -4222 0
4267 -4266 4222 0
4267 -4223 0
-4268 4267 0
-4268 -4223 0
4268 -4267 4223 0
4268 -4224 0
-4269 4268 0
-4269 -4224 0
4269 -4268 4224 0
4269 -4225 0
-4270 4269 0
-4270 -4225 0
4270 -4269 4225 0
4270 -4123 0
-4271 4270 0
-4271 -4123 0
4271 -4270 4123 0
4271 -3911 0
-4272 4271 0
-4272 -3911 0
4272 -4271 3911 0
4272 -3691 0
-4273 4272 0
-4273 -3691 0
4273 -4272 3691 0
4273 -3463 0
-4274 4273 0
-4274 -3463 0
4274 -4273 3463 0
4274 -3227 0
-4275 4274 0
-4275 -3227 0
4275 -4274 3227 0
4275 -4226 0
-4276 4275 0
-4276 -4226 0
4276 -4275 4226 0
4276 -4227 0
-4277 4276 0
-4277 -4227 0
4277 -4276 4227 0
4277 -4228 0
-4278 4277 0
-4278 -4228 0
4278 -4277 4228 0
4278 -4229 0
-4279 4278 0
-4279 -4229 0
4279 -4278 4229 0
4279 -4230 0
-4280 4279 0
-4280 -4230 0
4280 -4279 4230 0
4280 -4231 0
-4281 4280 0
-4281 -4231 0
4281 -4280 4231 0
4281 -4232 0
-4282 4281 0
-4282 -4232 0
4282 -4281 4232 0
4282 -4233 0
-4283 4282 0
-4283 -4233 0
4283 -4282 4233 0
4283 -4234 0
-4284 4283 0
-4284 -4234 0
4284 -4283 4234 0
4284 -4235 0
-4285 4284 0
-4285 -4235 0
4285 -4284 4235 0
4285 -4236 0
-4286 4285 0
-4286 -4236 0
4286 -4285 4236 0
4286 -4237 0
-4287 4286 0
-4287 -4237 0
4287 -4286 4237 0
4287 -4238 0
-4288 4287 0
-4288 -4238 0
4288 -4287 4238 0
4288 -4239 0
-4289 4288 0
-4289 -4239 0
4289 -4288 4239 0
4289 -4240 0
-4290 4289 0
-4290 -4240 0
4290 -4289 4240 0
4290 -4241 0
-4291 4290 0
-4291 -4241 0
4291 -4290 4241 0
4291 -4242 0
-4292 4291 0
-4292 -4242 0
4292 -4291 4242 0
4292 -4243 0
-4293 4292 0
-4293 -4243 0
4293 -4292 4243 0
4293 -4244 0
-4294 4293 0
-4294 -4244 0
4294 -4293 4244 0
4294 -4245 0
-4295 4294 0
-4295 -4245 0
4295 -4294 4245 0
4295 -4246 0
-4296 4295 0
-4296 -4246 0
4296 -4295 4246 0
4296 -4247 0
-4297 4296 0
-4297 -4247 0
4297 -4296 4247 0
4297 -4248 0
-4298 4297 0
-4298 -4248 0
4298 -4297 4248 0
4298 -4249 0
-4299 4298 0
-4299 -4249 0
4299 -4298 4249 0
4299 -4250 0
-4300 4299 0
-4300 -4250 0
4300 -4299 4250 0
4300 -4251 0
-4301 4300 0
-4301 -4251 0
4301 -4300 4251 0
4301 -4252 0
-4302 4301 0
-4302 -4252 0
4302 -4301 4252 0
4302 -4253 0
-4303 4302 0
-4303 -4253 0
4303 -4302 4253 0
4303 -4254 0
-4304 4303 0
-4304 -4254 0
4304 -4303 4254 0
4304 -4255 0
-4305 4304 0
-4305 -4255 0
4305 -4304 4255 0
4305 -4256 0
-4306 4305 0
-4306 -4256 0
4306 -4305 4256 0
4306 -3146 0
-4307 4306 0
-4307 -3146 0
4307 -4306 3146 0
4307 -3384 0
-4308 4307 0
-4308 -3384 0
4308 -4307 3384 0
4308 -3614 0
-4309 4308 0
-4309 -3614 0
4309 -4308 3614 0
4309 -3836 0
-4310 4309 0
-4310 -3836 0
4310 -4309 3836 0
4310 -4050 0
-4311 4310 0
-4311 -4050 0
4311 -4310 4050 0
4311 -4257 0
-4312 4311 0
-4312 -4257 0
4312 -4311 4257 0
4312 -4258 0
-4313 4312 0
-4313 -4258 0
4313 -4312 4258 0
4313 -4259 0
-4314 4313 0
-4314 -4259 0
4314 -4313 4259 0
4314 -4260 0
-4315 4314 0
-4315 -4260 0
4315 -4314 4260 0
4315 -4261 0
-4316 4315 0
-4316 -4261 0
4316 -4315 4261 0
4316 -3276 0
-4317 4316 0
-4317 -3276 0
4317 -4316 3276 0
4317 -3509 0
-4318 4317 0
-4318 -3509 0
4318 -4317 3509 0
4318 -3734 0
-4319 4318 0
-4319 -3734 0
4319 -4318 3734 0
4319 -3951 0
-4320 4319 0
-4320 -3951 0
4320 -4319 3951 0
4320 -4160 0
-4321 4320 0
-4321 -4160 0
4321 -4320 4160 0
-4322 7 0
-4322 38 0
4322 -7 -38 0
-4323 8 0
-4323 37 0
4323 -8 -37 0
-4324 9 0
-4324 36 0
4324 -9 -36 0
-4325 10 0
-4325 35 0
4325 -10 -35 0
-4326 11 0
-4326 34 0
4326 -11 -34 0
-4327 5 0
-4327 48 0
4327 -5 -48 0
-4328 4 0
-4328 47 0
4328 -4 -47 0
-4329 3 0
-4329 46 0
4329 -3 -46 0
-4330 2 0
-4330 45 0
4330 -2 -45 0
-4331 12 0
-4331 75 0
4331 -12 -75 0
-4332 13 0
-4332 74 0
4332 -13 -74 0
-4333 14 0
-4333 73 0
4333 -14 -73 0
-4334 15 0
-4334 72 0
4334 -15 -72 0
-4335 16 0
-4335 71 0
4335 -16 -71 0
-4336 17 0
-4336 70 0
4336 -17 -70 0
-4337 18 0
-4337 69 0
4337 -18 -69 0
-4338 19 0
-4338 68 0
4338 -19 -68 0
-4339 20 0
-4339 67 0
4339 -20 -67 0
-4340 21 0
-4340 66 0
4340 -21 -66 0
-4341 22 0
-4341 65 0
4341 -22 -65 0
-4342 23 0
-4342 64 0
4342 -23 -64 0
-4343 24 0
-4343 84 0
4343 -24 -84 0
-4344 25 0
-4344 83 0
4344 -25 -83 0
-4345 26 0
-4345 82 0
4345 -26 -82 0
-4346 27 0
-4346 81 0
4346 -27 -81 0
-4347 28 0
-4347 80 0
4347 -28 -80 0
-4348 29 0
-4348 79 0
4348 -29 -79 0
-4349 30 0
-4349 78 0
4349 -30 -78 0
-4350 31 0
-4350 77 0
4350 -31 -77 0
-4351 32 0
-4351 76 0
4351 -32 -76 0
-4352 34 0
-4352 94 0
4352 -34 -94 0
-4353 35 0
-4353 93 0
4353 -35 -93 0
-4354 36 0
-4354 92 0
4354 -36 -92 0
-4355 37 0
-4355 91 0
4355 -37 -91 0
-4356 38 0
-4356 90 0
4356 -38 -90 0
-4357 45 0
-4357 85 0
4357 -45 -85 0
-4358 46 0
-4358 86 0
4358 -46 -86 0
-4359 47 0
-4359 87 0
4359 -47 -87 0
-4360 48 0
-4360 88 0
4360 -48 -88 0
1 -4128 0
-4128 -3917 0
-4361 -4128 0
-4361 -3917 0
4361 4128 3917 0
4361 -3698 0
-4362 4361 0
-4362 -3698 0
4362 -4361 3698 0
4362 -3471 0
-4363 4362 0
-4363 -3471 0
4363 -4362 3471 0
4363 -3236 0
-4364 4363 0
-4364 -3236 0
4364 -4363 3236 0
4364 -4322 0
-4365 4364 0
-4365 -4322 0
4365 -4364 4322 0
4365 -4323 0
-4366 4365 0
-4366 -4323 0
4366 -4365 4323 0
4366 -4324 0
-4367 4366 0
-4367 -4324 0
4367 -4366 4324 0
4367 -4325 0
-4368 4367 0
-4368 -4325 0
4368 -4367 4325 0
4368 -4326 0
-4369 4368 0
-4369 -4326 0
4369 -4368 4326 0
4369 -4225 0
-4370 4369 0
-4370 -4225 0
4370 -4369 4225 0
4370 -4017 0
-4371 4370 0
-4371 -4017 0
4371 -4370 4017 0
4371 -3801 0
-4372 4371 0
-4372 -3801 0
4372 -4371 3801 0
4372 -3577 0
-4373 4372 0
-4373 -3577 0
4373 -4372 3577 0
4373 -3345 0
-4374 4373 0
-4374 -3345 0
4374 -4373 3345 0
4374 -3105 0
-4375 4374 0
-4375 -3105 0
4375 -4374 3105 0
4375 -4327 0
-4376 4375 0
-4376 -4327 0
4376 -4375 4327 0
4376 -4328 0
-4377 4376 0
-4377 -4328 0
4377 -4376 4328 0
4377 -4329 0
-4378 4377 0
-4378 -4329 0
4378 -4377 4329 0
4378 -4330 0
-4379 4378 0
-4379 -4330 0
4379 -4378 4330 0
4379 -4331 0
-4380 4379 0
-4380 -4331 0
4380 -4379 4331 0
4380 -4332 0
-4381 4380 0
-4381 -4332 0
4381 -4380 4332 0
4381 -4333 0
-4382 4381 0
-4382 -4333 0
4382 -4381 4333 0
4382 -4334 0
-4383 4382 0
-4383 -4334 0
4383 -4382 4334 0
4383 -4335 0
-4384 4383 0
-4384 -4335 0
4384 -4383 4335 0
4384 -4336 0
-4385 4384 0
-4385 -4336 0
4385 -4384 4336 0
4385 -4337 0
-4386 4385 0
-4386 -4337 0
4386 -4385 4337 0
4386 -4338 0
-4387 4386 0
-4387 -4338 0
4387 -4386 4338 0
4387 -4339 0
-4388 4387 0
-4388 -4339 0
4388 -4387 4339 0
4388 -4340 0
-4389 4388 0
-4389 -4340 0
4389 -4388 4340 0
4389 -4341 0
-4390 4389 0
-4390 -4341 0
4390 -4389 4341 0
4390 -4342 0
-4391 4390 0
-4391 -4342 0
4391 -4390 4342 0
4391 -4343 0
-4392 4391 0
-4392 -4343 0
4392 -4391 4343 0
4392 -4344 0
-4393 4392 0
-4393 -4344 0
4393 -4392 4344 0
4393 -4345 0
-4394 4393 0
-4394 -4345 0
4394 -4393 4345 0
4394 -4346 0
-4395 4394 0
-4395 -4346 0
4395 -4394 4346 0
4395 -4347 0
-4396 4395 0
-4396 -4347 0
4396 -4395 4347 0
4396 -4348 0
-4397 4396 0
-4397 -4348 0
4397 -4396 4348 0
4397 -4349 0
-4398 4397 0
-4398 -4349 0
4398 -4397 4349 0
4398 -4350 0
-4399 4398 0
-4399 -4350 0
4399 -4398 4350 0
4399 -4351 0
-4400 4399 0
-4400 -4351 0
4400 -4399 4351 0
4400 -4252 0
-4401 4400 0
-4401 -4252 0
4401 -4400 4252 0
4401 -4352 0
-4402 4401 0
-4402 -4352 0
4402 -4401 4352 0
4402 -4353 0
-4403 4402 0
-4403 -4353 0
4403 -4402 4353 0
4403 -4354 0
-4404 4403 0
-4404 -4354 0
4404 -4403 4354 0
4404 -4355 0
-4405 4404 0
-4405 -4355 0
4405 -4404 4355 0
4405 -4356 0
-4406 4405 0
-4406 -4356 0
4406 -4405 4356 0
4406 -3267 0
-4407 4406 0
-4407 -3267 0
4407 -4406 3267 0
4407 -3501 0
-4408 4407 0
-4408 -3501 0
4408 -4407 3501 0
4408 -3727 0
-4409 4408 0
-4409 -3727 0
4409 -4408 3727 0
4409 -3945 0
-4410 4409 0
-4410 -3945 0
4410 -4409 3945 0
4410 -4155 0
-4411 4410 0
-4411 -4155 0
4411 -4410 4155 0
4411 -4357 0
-4412 4411 0
-4412 -4357 0
4412 -4411 4357 0
4412 -4358 0
-4413 4412 0
-4413 -4358 0
4413 -4412 4358 0
4413 -4359 0
-4414 4413 0
-4414 -4359 0
4414 -4413 4359 0
4414 -4360 0
-4415 4414 0
-4415 -4360 0
4415 -4414 4360 0
4415 -3157 0
-4416 4415 0
-4416 -3157 0
4416 -4415 3157 0
4416 -3394 0
-4417 4416 0
-4417 -3394 0
4417 -4416 3394 0
4417 -3623 0
-4418 4417 0
-4418 -3623 0
4418 -4417 3623 0
4418 -3844 0
-4419 4418 0
-4419 -3844 0
4419 -4418 3844 0
4419 -4057 0
-4420 4419 0
-4420 -4057 0
4420 -4419 4057 0
-4421 8 0
-4421 38 0
4421 -8 -38 0
-4422 9 0
-4422 37 0
4422 -9 -37 0
-4423 10 0
-4423 36 0
4423 -10 -36 0
-4424 11 0
-4424 35 0
4424 -11 -35 0
-4425 5 0
-4425 49 0
4425 -5 -49 0
-4426 4 0
-4426 48 0
4426 -4 -48 0
-4427 3 0
-4427 47 0
4427 -3 -47 0
-4428 2 0
-4428 46 0
4428 -2 -46 0
-4429 12 0
-4429 76 0
4429 -12 -76 0
-4430 13 0
-4430 75 0
4430 -13 -75 0
-4431 14 0
-4431 74 0
4431 -14 -74 0
-4432 15 0
-4432 73 0
4432 -15 -73 0
-4433 16 0
-4433 72 0
4433 -16 -72 0
-4434 17 0
-4434 71 0
4434 -17 -71 0
-4435 18 0
-4435 70 0
4435 -18 -70 0
-4436 19 0
-4436 69 0
4436 -19 -69 0
-4437 20 0
-4437 68 0
4437 -20 -68 0
-4438 21 0
-4438 67 0
4438 -21 -67 0
-4439 22 0
-4439 66 0
4439 -22 -66 0
-4440 23 0
-4440 65 0
4440 -23 -65 0
-4441 24 0
-4441 64 0
4441 -24 -64 0
-4442 25 0
-4442 84 0
4442 -25 -84 0
-4443 26 0
-4443 83 0
4443 -26 -83 0
-4444 27 0
-4444 82 0
4444 -27 -82 0
-4445 28 0
-4445 81 0
4445 -28 -81 0
-4446 29 0
-4446 80 0
4446 -29 -80 0
-4447 30 0
-4447 79 0
4447 -30 -79 0
-4448 31 0
-4448 78 0
4448 -31 -78 0
-4449 32 0
-4449 77 0
4449 -32 -77 0
-4450 35 0
-4450 94 0
4450 -35 -94 0
-4451 36 0
-4451 93 0
4451 -36 -93 0
-4452 37 0
-4452 92 0
4452 -37 -92 0
-4453 38 0
-4453 91 0
4453 -38 -91 0
-4454 46 0
-4454 85 0
4454 -46 -85 0
-4455 47 0
-4455 86 0
4455 -47 -86 0
-4456 48 0
-4456 87 0
4456 -48 -87 0
-4457 49 0
-4457 88 0
4457 -49 -88 0
1 -4230 0
-4230 -4023 0
-4458 -4230 0
-4458 -4023 0
4458 4230 4023 0
4458 -3808 0
-4459 4458 0
-4459 -3808 0
4459 -4458 3808 0
4459 -3585 0
-4460 4459 0
-4460 -3585 0
4460 -4459 3585 0
4460 -3354 0
-4461 4460 0
-4461 -3354 0
4461 -4460 3354 0
4461 -3115 0
-4462 4461 0
-4462 -3115 0
4462 -4461 3115 0
4462 -4421 0
-4463 4462 0
-4463 -4421 0
4463 -4462 4421 0
4463 -4422 0
-4464 4463 0
-4464 -4422 0
4464 -4463 4422 0
4464 -4423 0
-4465 4464 0
-4465 -4423 0
4465 -4464 4423 0
4465 -4424 0
-4466 4465 0
-4466 -4424 0
4466 -4465 4424 0
4466 -4326 0
-4467 4466 0
-4467 -4326 0
4467 -4466 4326 0
4467 -4122 0
-4468 4467 0
-4468 -4122 0
4468 -4467 4122 0
4468 -3910 0
-4469 4468 0
-4469 -3910 0
4469 -4468 3910 0
4469 -3690 0
-4470 4469 0
-4470 -3690 0
4470 -4469 3690 0
4470 -3462 0
-4471 4470 0
-4471 -3462 0
4471 -4470 3462 0
4471 -3226 0
-4472 4471 0
-4472 -3226 0
4472 -4471 3226 0
4472 -4425 0
-4473 4472 0
-4473 -4425 0
4473 -4472 4425 0
4473 -4426 0
-4474 4473 0
-4474 -4426 0
4474 -4473 4426 0
4474 -4427 0
-4475 4474 0
-4475 -4427 0
4475 -4474 4427 0
4475 -4428 0
-4476 4475 0
-4476 -4428 0
4476 -4475 4428 0
4476 -4429 0
-4477 4476 0
-4477 -4429 0
4477 -4476 4429 0
4477 -4430 0
-4478 4477 0
-4478 -4430 0
4478 -4477 4430 0
4478 -4431 0
-4479 4478 0
-4479 -4431 0
4479 -4478 4431 0
4479 -4432 0
-4480 4479 0
-4480 -4432 0
4480 -4479 4432 0
4480 -4433 0
-4481 4480 0
-4481 -4433 0
4481 -4480 4433 0
4481 -4434 0
-4482 4481 0
-4482 -4434 0
4482 -4481 4434 0
4482 -4435 0
-4483 4482 0
-4483 -4435 0
4483 -4482 4435 0
4483 -4436 0
-4484 4483 0
-4484 -4436 0
4484 -4483 4436 0
4484 -4437 0
-4485 4484 0
-4485 -4437 0
4485 -4484 4437 0
4485 -4438 0
-4486 4485 0
-4486 -4438 0
4486 -4485 4438 0
4486 -4439 0
-4487 4486 0
-4487 -4439 0
4487 -4486 4439 0
4487 -4440 0
-4488 4487 0
-4488 -4440 0
4488 -4487 4440 0
4488 -4441 0
-4489 4488 0
-4489 -4441 0
4489 -4488 4441 0
4489 -4442 0
-4490 4489 0
-4490 -4442 0
4490 -4489 4442 0
4490 -4443 0
-4491 4490 0
-4491 -4443 0
4491 -4490 4443 0
4491 -4444 0
-4492 4491 0
-4492 -4444 0
4492 -4491 4444 0
4492 -4445 0
-4493 4492 0
-4493 -4445 0
4493 -4492 4445 0
4493 -4446 0
-4494 4493 0
-4494 -4446 0
4494 -4493 4446 0
4494 -4447 0
-4495 4494 0
-4495 -4447 0
4495 -4494 4447 0
4495 -4448 0
-4496 4495 0
-4496 -4448 0
4496 -4495 4448 0
4496 -4449 0
-4497 4496 0
-4497 -4449 0
4497 -4496 4449 0
4497 -4150 0
-4498 4497 0
-4498 -4150 0
4498 -4497 4150 0
4498 -4352 0
-4499 4498 0
-4499 -4352 0
4499 -4498 4352 0
4499 -4450 0
-4500 4499 0
-4500 -4450 0
4500 -4499 4450 0
4500 -4451 0
-4501 4500 0
-4501 -4451 0
4501 -4500 4451 0
4501 -4452 0
-4502 4501 0
-4502 -4452 0
4502 -4501 4452 0
4502 -4453 0
-4503 4502 0
-4503 -4453 0
4503 -4502 4453 0
4503 -3147 0
-4504 4503 0
-4504 -3147 0
4504 -4503 3147 0
4504 -3385 0
-4505 4504 0
-4505 -3385 0
4505 -4504 3385 0
4505 -3615 0
-4506 4505 0
-4506 -3615 0
4506 -4505 3615 0
4506 -3837 0
-4507 4506 0
-4507 -3837 0
4507 -4506 3837 0
4507 -4051 0
-4508 4507 0
-4508 -4051 0
4508 -4507 4051 0
4508 -4257 0
-4509 4508 0
-4509 -4257 0
4509 -4508 4257 0
4509 -4454 0
-4510 4509 0
-4510 -4454 0
4510 -4509 4454 0
4510 -4455 0
-4511 4510 0
-4511 -4455 0
4511 -4510 4455 0
4511 -4456 0
-4512 4511 0
-4512 -4456 0
4512 -4511 4456 0
4512 -4457 0
-4513 4512 0
-4513 -4457 0
4513 -4512 4457 0
4513 -3277 0
-4514 4513 0
-4514 -3277 0
4514 -4513 3277 0
4514 -3510 0
-4515 4514 0
-4515 -3510 0
4515 -4514 3510 0
4515 -3735 0
-4516 4515 0
-4516 -3735 0
4516 -4515 3735 0
4516 -3952 0
-4517 4516 0
-4517 -3952 0
4517 -4516 3952 0
-4518 8 0
-4518 39 0
4518 -8 -39 0
-4519 9 0
-4519 38 0
4519 -9 -38 0
-4520 10 0
-4520 37 0
4520 -10 -37 0
-4521 11 0
-4521 36 0
4521 -11 -36 0
-4522 4 0
-4522 49 0
4522 -4 -49 0
-4523 3 0
-4523 48 0
4523 -3 -48 0
-4524 2 0
-4524 47 0
4524 -2 -47 0
-4525 12 0
-4525 77 0
4525 -12 -77 0
-4526 13 0
-4526 76 0
4526 -13 -76 0
-4527 14 0
-4527 75 0
4527 -14 -75 0
-4528 15 0
-4528 74 0
4528 -15 -74 0
-4529 16 0
-4529 73 0
4529 -16 -73 0
-4530 17 0
-4530 72 0
4530 -17 -72 0
-4531 18 0
-4531 71 0
4531 -18 -71 0
-4532 19 0
-4532 70 0
4532 -19 -70 0
-4533 20 0
-4533 69 0
4533 -20 -69 0
-4534 21 0
-4534 68 0
4534 -21 -68 0
-4535 22 0
-4535 67 0
4535 -22 -67 0
-4536 23 0
-4536 66 0
4536 -23 -66 0
-4537 24 0
-4537 65 0
4537 -24 -65 0
-4538 25 0
-4538 64 0
4538 -25 -64 0
-4539 26 0
-4539 84 0
4539 -26 -84 0
-4540 27 0
-4540 83 0
4540 -27 -83 0
-4541 28 0
-4541 82 0
4541 -28 -82 0
-4542 29 0
-4542 81 0
4542 -29 -81 0
-4543 30 0
-4543 80 0
4543 -30 -80 0
-4544 31 0
-4544 79 0
4544 -31 -79 0
-4545 32 0
-4545 78 0
4545 -32 -78 0
-4546 36 0
-4546 94 0
4546 -36 -94 0
-4547 37 0
-4547 93 0
4547 -37 -93 0
-4548 38 0
-4548 92 0
4548 -38 -92 0
-4549 39 0
-4549 91 0
4549 -39 -91 0
-4550 47 0
-4550 85 0
4550 -47 -85 0
-4551 48 0
-4551 86 0
4551 -48 -86 0
-4552 49 0
-4552 87 0
4552 -49 -87 0
1 -4330 0
-4330 -4127 0
-4553 -4330 0
-4553 -4127 0
4553 4330 4127 0
4553 -3916 0
-4554 4553 0
-4554 -3916 0
4554 -4553 3916 0
4554 -3697 0
-4555 4554 0
-4555 -3697 0
4555 -4554 3697 0
4555 -3470 0
-4556 4555 0
-4556 -3470 0
4556 -4555 3470 0
4556 -3235 0
-4557 4556 0
-4557 -3235 0
4557 -4556 3235 0
4557 -4518 0
-4558 4557 0
-4558 -4518 0
4558 -4557 4518 0
4558 -4519 0
-4559 4558 0
-4559 -4519 0
4559 -4558 4519 0
4559 -4520 0
-4560 4559 0
-4560 -4520 0
4560 -4559 4520 0
4560 -4521 0
-4561 4560 0
-4561 -4521 0
4561 -4560 4521 0
4561 -4424 0
-4562 4561 0
-4562 -4424 0
4562 -4561 4424 0
4562 -4224 0
-4563 4562 0
-4563 -4224 0
4563 -4562 4224 0
4563 -4016 0
-4564 4563 0
-4564 -4016 0
4564 -4563 4016 0
4564 -3800 0
-4565 4564 0
-4565 -3800 0
4565 -4564 3800 0
4565 -3576 0
-4566 4565 0
-4566 -3576 0
4566 -4565 3576 0
4566 -3344 0
-4567 4566 0
-4567 -3344 0
4567 -4566 3344 0
4567 -3104 0
-4568 4567 0
-4568 -3104 0
4568 -4567 3104 0
4568 -4522 0
-4569 4568 0
-4569 -4522 0
4569 -4568 4522 0
4569 -4523 0
-4570 4569 0
-4570 -4523 0
4570 -4569 4523 0
4570 -4524 0
-4571 4570 0
-4571 -4524 0
4571 -4570 4524 0
4571 -4525 0
-4572 4571 0
-4572 -4525 0
4572 -4571 4525 0
4572 -4526 0
-4573 4572 0
-4573 -4526 0
4573 -4572 4526 0
4573 -4527 0
-4574 4573 0
-4574 -4527 0
4574 -4573 4527 0
4574 -4528 0
-4575 4574 0
-4575 -4528 0
4575 -4574 4528 0
4575 -4529 0
-4576 4575 0
-4576 -4529 0
4576 -4575 4529 0
4576 -4530 0
-4577 4576 0
-4577 -4530 0
4577 -4576 4530 0
4577 -4531 0
-4578 4577 0
-4578 -4531 0
4578 -4577 4531 0
4578 -4532 0
-4579 4578 0
-4579 -4532 0
4579 -4578 4532 0
4579 -4533 0
-4580 4579 0
-4580 -4533 0
4580 -4579 4533 0
4580 -4534 0
-4581 4580 0
-4581 -4534 0
4581 -4580 4534 0
4581 -4535 0
-4582 4581 0
-4582 -4535 0
4582 -4581 4535 0
4582 -4536 0
-4583 4582 0
-4583 -4536 0
4583 -4582 4536 0
4583 -4537 0
-4584 4583 0
-4584 -4537 0
4584 -4583 4537 0
4584 -4538 0
-4585 4584 0
-4585 -4538 0
4585 -4584 4538 0
4585 -4539 0
-4586 4585 0
-4586 -4539 0
4586 -4585 4539 0
4586 -4540 0
-4587 4586 0
-4587 -4540 0
4587 -4586 4540 0
4587 -4541 0
-4588 4587 0
-4588 -4541 0
4588 -4587 4541 0
4588 -4542 0
-4589 4588 0
-4589 -4542 0
4589 -4588 4542 0
4589 -4543 0
-4590 4589 0
-4590 -4543 0
4590 -4589 4543 0
4590 -4544 0
-4591 4590 0
-4591 -4544 0
4591 -4590 4544 0
4591 -4545 0
-4592 4591 0
-4592 -4545 0
4592 -4591 4545 0
4592 -4046 0
-4593 4592 0
-4593 -4046 0
4593 -4592 4046 0
4593 -4253 0
-4594 4593 0
-4594 -4253 0
4594 -4593 4253 0
4594 -4450 0
-4595 4594 0
-4595 -4450 0
4595 -4594 4450 0
4595 -4546 0
-4596 4595 0
-4596 -4546 0
4596 -4595 4546 0
4596 -4547 0
-4597 4596 0
-4597 -4547 0
4597 -4596 4547 0
4597 -4548 0
-4598 4597 0
-4598 -4548 0
4598 -4597 4548 0
4598 -4549 0
-4599 4598 0
-4599 -4549 0
4599 -4598 4549 0
4599 -3268 0
-4600 4599 0
-4600 -3268 0
4600 -4599 3268 0
4600 -3502 0
-4601 4600 0
-4601 -3502 0
4601 -4600 3502 0
4601 -3728 0
-4602 4601 0
-4602 -3728 0
4602 -4601 3728 0
4602 -3946 0
-4603 4602 0
-4603 -3946 0
4603 -4602 3946 0
4603 -4156 0
-4604 4603 0
-4604 -4156 0
4604 -4603 4156 0
4604 -4357 0
-4605 4604 0
-4605 -4357 0
4605 -4604 4357 0
4605 -4550 0
-4606 4605 0
-4606 -4550 0
4606 -4605 4550 0
4606 -4551 0
-4607 4606 0
-4607 -4551 0
4607 -4606 4551 0
4607 -4552 0
-4608 4607 0
-4608 -4552 0
4608 -4607 4552 0
4608 -3158 0
-4609 4608 0
-4609 -3158 0
4609 -4608 3158 0
4609 -3395 0
-4610 4609 0
-4610 -3395 0
4610 -4609 3395 0
4610 -3624 0
-4611 4610 0
-4611 -3624 0
4611 -4610 3624 0
4611 -3845 0
-4612 4611 0
-4612 -3845 0
4612 -4611 3845 0
-4613 9 0
-4613 39 0
4613 -9 -39 0
-4614 10 0
-4614 38 0
4614 -10 -38 0
-4615 11 0
-4615 37 0
4615 -11 -37 0
-4616 4 0
-4616 50 0
4616 -4 -50 0
-4617 3 0
-4617 49 0
4617 -3 -49 0
-4618 2 0
-4618 48 0
4618 -2 -48 0
-4619 12 0
-4619 78 0
4619 -12 -78 0
-4620 13 0
-4620 77 0
4620 -13 -77 0
-4621 14 0
-4621 76 0
4621 -14 -76 0
-4622 15 0
-4622 75 0
4622 -15 -75 0
-4623 16 0
-4623 74 0
4623 -16 -74 0
-4624 17 0
-4624 73 0
4624 -17 -73 0
-4625 18 0
-4625 72 0
4625 -18 -72 0
-4626 19 0
-4626 71 0
4626 -19 -71 0
-4627 20 0
-4627 70 0
4627 -20 -70 0
-4628 21 0
-4628 69 0
4628 -21 -69 0
-4629 22 0
-4629 68 0
4629 -22 -68 0
-4630 23 0
-4630 67 0
4630 -23 -67 0
-4631 24 0
-4631 66 0
4631 -24 -66 0
-4632 25 0
-4632 65 0
4632 -25 -65 0
-4633 26 0
-4633 64 0
4633 -26 -64 0
-4634 27 0
-4634 84 0
4634 -27 -84 0
-4635 28 0
-4635 83 0
4635 -28 -83 0
-4636 29 0
-4636 82 0
4636 -29 -82 0
-4637 30 0
-4637 81 0
4637 -30 -81 0
-4638 31 0
-4638 80 0
4638 -31 -80 0
-4639 32 0
-4639 79 0
4639 -32 -79 0
-4640 37 0
-4640 94 0
4640 -37 -94 0
-4641 38 0
-4641 93 0
4641 -38 -93 0
-4642 39 0
-4642 92 0
4642 -39 -92 0
-4643 48 0
-4643 85 0
4643 -48 -85 0
-4644 49 0
-4644 86 0
4644 -49 -86 0
-4645 50 0
-4645 87 0
4645 -50 -87 0
1 -4428 0
-4428 -4229 0
-4646 -4428 0
-4646 -4229 0
4646 4428 4229 0
4646 -4022 0
-4647 4646 0
-4647 -4022 0
4647 -4646 4022 0
4647 -3807 0
-4648 4647 0
-4648 -3807 0
4648 -4647 3807 0
4648 -3584 0
-4649 4648 0
-4649 -3584 0
4649 -4648 3584 0
4649 -3353 0
-4650 4649 0
-4650 -3353 0
4650 -4649 3353 0
4650 -3114 0
-4651 4650 0
-4651 -3114 0
4651 -4650 3114 0
4651 -4613 0
-4652 4651 0
-4652 -4613 0
4652 -4651 4613 0
4652 -4614 0
-4653 4652 0
-4653 -4614 0
4653 -4652 4614 0
4653 -4615 0
-4654 4653 0
-4654 -4615 0
4654 -4653 4615 0
4654 -4521 0
-4655 4654 0
-4655 -4521 0
4655 -4654 4521 0
4655 -4325 0
-4656 4655 0
-4656 -4325 0
4656 -4655 4325 0
4656 -4121 0
-4657 4656 0
-4657 -4121 0
4657 -4656 4121 0
4657 -3909 0
-4658 4657 0
-4658 -3909 0
4658 -4657 3909 0
4658 -3689 0
-4659 4658 0
-4659 -3689 0
4659 -4658 3689 0
4659 -3461 0
-4660 4659 0
-4660 -3461 0
4660 -4659 3461 0
4660 -3225 0
-4661 4660 0
-4661 -3225 0
4661 -4660 3225 0
4661 -4616 0
-4662 4661 0
-4662 -4616 0
4662 -4661 4616 0
4662 -4617 0
-4663 4662 0
-4663 -4617 0
4663 -4662 4617 0
4663 -4618 0
-4664 4663 0
-4664 -4618 0
4664 -4663 4618 0
4664 -4619 0
-4665 4664 0
-4665 -4619 0
4665 -4664 4619 0
4665 -4620 0
-4666 4665 0
-4666 -4620 0
4666 -4665 4620 0
4666 -4621 0
-4667 4666 0
-4667 -4621 0
4667 -4666 4621 0
4667 -4622 0
-4668 4667 0
-4668 -4622 0
4668 -4667 4622 0
4668 -4623 0
-4669 4668 0
-4669 -4623 0
4669 -4668 4623 0
4669 -4624 0
-4670 4669 0
-4670 -4624 0
4670 -4669 4624 0
4670 -4625 0
-4671 4670 0
-4671 -4625 0
4671 -4670 4625 0
4671 -4626 0
-4672 4671 0
-4672 -4626 0
4672 -4671 4626 0
4672 -4627 0
-4673 4672 0
-4673 -4627 0
4673 -4672 4627 0
4673 -4628 0
-4674 4673 0
-4674 -4628 0
4674 -4673 4628 0
4674 -4629 0
-4675 4674 0
-4675 -4629 0
4675 -4674 4629 0
4675 -4630 0
-4676 4675 0
-4676 -4630 0
4676 -4675 4630 0
4676 -4631 0
-4677 4676 0
-4677 -4631 0
4677 -4676 4631 0
4677 -4632 0
-4678 4677 0
-4678 -4632 0
4678 -4677 4632 0
4678 -4633 0
-4679 4678 0
-4679 -4633 0
4679 -4678 4633 0
4679 -4634 0
-4680 4679 0
-4680 -4634 0
4680 -4679 4634 0
4680 -4635 0
-4681 4680 0
-4681 -4635 0
4681 -4680 4635 0
4681 -4636 0
-4682 4681 0
-4682 -4636 0
4682 -4681 4636 0
4682 -4637 0
-4683 4682 0
-4683 -4637 0
4683 -4682 4637 0
4683 -4638 0
-4684 4683 0
-4684 -4638 0
4684 -4683 4638 0
4684 -4639 0
-4685 4684 0
-4685 -4639 0
4685 -4684 4639 0
4685 -3940 0
-4686 4685 0
-4686 -3940 0
4686 -4685 3940 0
4686 -4151 0
-4687 4686 0
-4687 -4151 0
4687 -4686 4151 0
4687 -4353 0
-4688 4687 0
-4688 -4353 0
4688 -4687 4353 0
4688 -4546 0
-4689 4688 0
-4689 -4546 0
4689 -4688 4546 0
4689 -4640 0
-4690 4689 0
-4690 -4640 0
4690 -4689 4640 0
4690 -4641 0
-4691 4690 0
-4691 -4641 0
4691 -4690 4641 0
4691 -4642 0
-4692 4691 0
-4692 -4642 0
4692 -4691 4642 0
4692 -3148 0
-4693 4692 0
-4693 -3148 0
4693 -4692 3148 0
4693 -3386 0
-4694 4693 0
-4694 -3386 0
4694 -4693 3386 0
4694 -3616 0
-4695 4694 0
-4695 -3616 0
4695 -4694 3616 0
4695 -3838 0
-4696 4695 0
-4696 -3838 0
4696 -4695 3838 0
4696 -4052 0
-4697 4696 0
-4697 -4052 0
4697 -4696 4052 0
4697 -4258 0
-4698 4697 0
-4698 -4258 0
4698 -4697 4258 0
4698 -4454 0
-4699 4698 0
-4699 -4454 0
4699 -4698 4454 0
4699 -4643 0
-4700 4699 0
-4700 -4643 0
4700 -4699 4643 0
4700 -4644 0
-4701 4700 0
-4701 -4644 0
4701 -4700 4644 0
4701 -4645 0
-4702 4701 0
-4702 -4645 0
4702 -4701 4645 0
4702 -3278 0
-4703 4702 0
-4703 -3278 0
4703 -4702 3278 0
4703 -3511 0
-4704 4703 0
-4704 -3511 0
4704 -4703 3511 0
4704 -3736 0
-4705 4704 0
-4705 -3736 0
4705 -4704 3736 0
-4706 9 0
-4706 40 0
4706 -9 -40 0
-4707 10 0
-4707 39 0
4707 -10 -39 0
-4708 11 0
-4708 38 0
4708 -11 -38 0
-4709 3 0
-4709 50 0
4709 -3 -50 0
-4710 2 0
-4710 49 0
4710 -2 -49 0
-4711 12 0
-4711 79 0
4711 -12 -79 0
-4712 13 0
-4712 78 0
4712 -13 -78 0
-4713 14 0
-4713 77 0
4713 -14 -77 0
-4714 15 0
-4714 76 0
4714 -15 -76 0
-4715 16 0
-4715 75 0
4715 -16 -75 0
-4716 17 0
-4716 74 0
4716 -17 -74 0
-4717 18 0
-4717 73 0
4717 -18 -73 0
-4718 19 0
-4718 72 0
4718 -19 -72 0
-4719 20 0
-4719 71 0
4719 -20 -71 0
-4720 21 0
-4720 70 0
4720 -21 -70 0
-4721 22 0
-4721 69 0
4721 -22 -69 0
-4722 23 0
-4722 68 0
4722 -23 -68 0
-4723 24 0
-4723 67 0
4723 -24 -67 0
-4724 25 0
-4724 66 0
4724 -25 -66 0
-4725 26 0
-4725 65 0
4725 -26 -65 0
-4726 27 0
-4726 64 0
4726 -27 -64 0
-4727 28 0
-4727 84 0
4727 -28 -84 0
-4728 29 0
-4728 83 0
4728 -29 -83 0
-4729 30 0
-4729 82 0
4729 -30 -82 0
-4730 31 0
-4730 81 0
4730 -31 -81 0
-4731 32 0
-4731 80 0
4731 -32 -80 0
-4732 38 0
-4732 94 0
4732 -38 -94 0
-4733 39 0
-4733 93 0
4733 -39 -93 0
-4734 40 0
-4734 92 0
4734 -40 -92 0
-4735 49 0
-4735 85 0
4735 -49 -85 0
-4736 50 0
-4736 86 0
4736 -50 -86 0
1 -4524 0
-4524 -4329 0
-4737 -4524 0
-4737 -4329 0
4737 4524 4329 0
4737 -4126 0
-4738 4737 0
-4738 -4126 0
4738 -4737 4126 0
4738 -3915 0
-4739 4738 0
-4739 -3915 0
4739 -4738 3915 0
4739 -3696 0
-4740 4739 0
-4740 -3696 0
4740 -4739 3696 0
4740 -3469 0
-4741 4740 0
-4741 -3469 0
4741 -4740 3469 0
4741 -3234 0
-4742 4741 0
-4742 -3234 0
4742 -4741 3234 0
4742 -4706 0
-4743 4742 0
-4743 -4706 0
4743 -4742 4706 0
4743 -4707 0
-4744 4743 0
-4744 -4707 0
4744 -4743 4707 0
4744 -4708 0
-4745 4744 0
-4745 -4708 0
4745 -4744 4708 0
4745 -4615 0
-4746 4745 0
-4746 -4615 0
4746 -4745 4615 0
4746 -4423 0
-4747 4746 0
-4747 -4423 0
4747 -4746 4423 0
4747 -4223 0
-4748 4747 0
-4748 -4223 0
4748 -4747 4223 0
4748 -4015 0
-4749 4748 0
-4749 -4015 0
4749 -4748 4015 0
4749 -3799 0
-4750 4749 0
-4750 -3799 0
4750 -4749 3799 0
4750 -3575 0
-4751 4750 0
-4751 -3575 0
4751 -4750 3575 0
4751 -3343 0
-4752 4751 0
-4752 -3343 0
4752 -4751 3343 0
4752 -3103 0
-4753 4752 0
-4753 -3103 0
4753 -4752 3103 0
4753 -4709 0
-4754 4753 0
-4754 -4709 0
4754 -4753 4709 0
4754 -4710 0
-4755 4754 0
-4755 -4710 0
4755 -4754 4710 0
4755 -4711 0
-4756 4755 0
-4756 -4711 0
4756 -4755 4711 0
4756 -4712 0
-4757 4756 0
-4757 -4712 0
4757 -4756 4712 0
4757 -4713 0
-4758 4757 0
-4758 -4713 0
4758 -4757 4713 0
4758 -4714 0
-4759 4758 0
-4759 -4714 0
4759 -4758 4714 0
4759 -4715 0
-4760 4759 0
-4760 -4715 0
4760 -4759 4715 0
4760 -4716 0
-4761 4760 0
-4761 -4716 0
4761 -4760 4716 0
4761 -4717 0
-4762 4761 0
-4762 -4717 0
4762 -4761 4717 0
4762 -4718 0
-4763 4762 0
-4763 -4718 0
4763 -4762 4718 0
4763 -4719 0
-4764 4763 0
-4764 -4719 0
4764 -4763 4719 0
4764 -4720 0
-4765 4764 0
-4765 -4720 0
4765 -4764 4720 0
4765 -4721 0
-4766 4765 0
-4766 -4721 0
4766 -4765 4721 0
4766 -4722 0
-4767 4766 0
-4767 -4722 0
4767 -4766 4722 0
4767 -4723 0
-4768 4767 0
-4768 -4723 0
4768 -4767 4723 0
4768 -4724 0
-4769 4768 0
-4769 -4724 0
4769 -4768 4724 0
4769 -4725 0
-4770 4769 0
-4770 -4725 0
4770 -4769 4725 0
4770 -4726 0
-4771 4770 0
-4771 -4726 0
4771 -4770 4726 0
4771 -4727 0
-4772 4771 0
-4772 -4727 0
4772 -4771 4727 0
4772 -4728 0
-4773 4772 0
-4773 -4728 0
4773 -4772 4728 0
4773 -4729 0
-4774 4773 0
-4774 -4729 0
4774 -4773 4729 0
4774 -4730 0
-4775 4774 0
-4775 -4730 0
4775 -4774 4730 0
4775 -4731 0
-4776 4775 0
-4776 -4731 0
4776 -4775 4731 0
4776 -3832 0
-4777 4776 0
-4777 -3832 0
4777 -4776 3832 0
4777 -4047 0
-4778 4777 0
-4778 -4047 0
4778 -4777 4047 0
4778 -4254 0
-4779 4778 0
-4779 -4254 0
4779 -4778 4254 0
4779 -4451 0
-4780 4779 0
-4780 -4451 0
4780 -4779 4451 0
4780 -4640 0
-4781 4780 0
-4781 -4640 0
4781 -4780 4640 0
4781 -4732 0
-4782 4781 0
-4782 -4732 0
4782 -4781 4732 0
4782 -4733 0
-4783 4782 0
-4783 -4733 0
4783 -4782 4733 0
4783 -4734 0
-4784 4783 0
-4784 -4734 0
4784 -4783 4734 0
4784 -3269 0
-4785 4784 0
-4785 -3269 0
4785 -4784 3269 0
4785 -3503 0
-4786 4785 0
-4786 -3503 0
4786 -4785 3503 0
4786 -3729 0
-4787 4786 0
-4787 -3729 0
4787 -4786 3729 0
4787 -3947 0
-4788 4787 0
-4788 -3947 0
4788 -4787 3947 0
4788 -4157 0
-4789 4788 0
-4789 -4157 0
4789 -4788 4157 0
4789 -4358 0
-4790 4789 0
-4790 -4358 0
4790 -4789 4358 0
4790 -4550 0
-4791 4790 0
-4791 -4550 0
4791 -4790 4550 0
4791 -4735 0
-4792 4791 0
-4792 -4735 0
4792 -4791 4735 0
4792 -4736 0
-4793 4792 0
-4793 -4736 0
4793 -4792 4736 0
4793 -3159 0
-4794 4793 0
-4794 -3159 0
4794 -4793 3159 0
4794 -3396 0
-4795 4794 0
-4795 -3396 0
4795 -4794 3396 0
4795 -3625 0
-4796 4795 0
-4796 -3625 0
4796 -4795 3625 0
-4797 10 0
-4797 40 0
4797 -10 -40 0
-4798 11 0
-4798 39 0
4798 -11 -39 0
-4799 3 0
-4799 51 0
4799 -3 -51 0
-4800 2 0
-4800 50 0
4800 -2 -50 0
-4801 12 0
-4801 80 0
4801 -12 -80 0
-4802 13 0
-4802 79 0
4802 -13 -79 0
-4803 14 0
-4803 78 0
4803 -14 -78 0
-4804 15 0
-4804 77 0
4804 -15 -77 0
-4805 16 0
-4805 76 0
4805 -16 -76 0
-4806 17 0
-4806 75 0
4806 -17 -75 0
-4807 18 0
-4807 74 0
4807 -18 -74 0
-4808 19 0
-4808 73 0
4808 -19 -73 0
-4809 20 0
-4809 72 0
4809 -20 -72 0
-4810 21 0
-4810 71 0
4810 -21 -71 0
-4811 22 0
-4811 70 0
4811 -22 -70 0
-4812 23 0
-4812 69 0
4812 -23 -69 0
-4813 24 0
-4813 68 0
4813 -24 -68 0
-4814 25 0
-4814 67 0
4814 -25 -67 0
-4815 26 0
-4815 66 0
4815 -26 -66 0
-4816 27 0
-4816 65 0
4816 -27 -65 0
-4817 28 0
-4817 64 0
4817 -28 -64 0
-4818 29 0
-4818 84 0
4818 -29 -84 0
-4819 30 0
-4819 83 0
4819 -30 -83 0
-4820 31 0
-4820 82 0
4820 -31 -82 0
-4821 32 0
-4821 81 0
4821 -32 -81 0
-4822 39 0
-4822 94 0
4822 -39 -94 0
-4823 40 0
-4823 93 0
4823 -40 -93 0
-4824 50 0
-4824 85 0
4824 -50 -85 0
-4825 51 0
-4825 86 0
4825 -51 -86 0
1 -4618 0
-4618 -4427 0
-4826 -4618 0
-4826 -4427 0
4826 4618 4427 0
4826 -4228 0
-4827 4826 0
-4827 -4228 0
4827 -4826 4228 0
4827 -4021 0
-4828 4827 0
-4828 -4021 0
4828 -4827 4021 0
4828 -3806 0
-4829 4828 0
-4829 -3806 0
4829 -4828 3806 0
4829 -3583 0
-4830 4829 0
-4830 -3583 0
4830 -4829 3583 0
4830 -3352 0
-4831 4830 0
-4831 -3352 0
4831 -4830 3352 0
4831 -3113 0
-4832 4831 0
-4832 -3113 0
4832 -4831 3113 0
4832 -4797 0
-4833 4832 0
-4833 -4797 0
4833 -4832 4797 0
4833 -4798 0
-4834 4833 0
-4834 -4798 0
4834 -4833 4798 0
4834 -4708 0
-4835 4834 0
-4835 -4708 0
4835 -4834 4708 0
4835 -4520 0
-4836 4835 0
-4836 -4520 0
4836 -4835 4520 0
4836 -4324 0
-4837 4836 0
-4837 -4324 0
4837 -4836 4324 0
4837 -4120 0
-4838 4837 0
-4838 -4120 0
4838 -4837 4120 0
4838 -3908 0
-4839 4838 0
-4839 -3908 0
4839 -4838 3908 0
4839 -3688 0
-4840 4839 0
-4840 -3688 0
4840 -4839 3688 0
4840 -3460 0
-4841 4840 0
-4841 -3460 0
4841 -4840 3460 0
4841 -3224 0
-4842 4841 0
-4842 -3224 0
4842 -4841 3224 0
4842 -4799 0
-4843 4842 0
-4843 -4799 0
4843 -4842 4799 0
4843 -4800 0
-4844 4843 0
-4844 -4800 0
4844 -4843 4800 0
4844 -4801 0
-4845 4844 0
-4845 -4801 0
4845 -4844 4801 0
4845 -4802 0
-4846 4845 0
-4846 -4802 0
4846 -4845 4802 0
4846 -4803 0
-4847 4846 0
-4847 -4803 0
4847 -4846 4803 0
4847 -4804 0
-4848 4847 0
-4848 -4804 0
4848 -4847 4804 0
4848 -4805 0
-4849 4848 0
-4849 -4805 0
4849 -4848 4805 0
4849 -4806 0
-4850 4849 0
-4850 -4806 0
4850 -4849 4806 0
4850 -4807 0
-4851 4850 0
-4851 -4807 0
4851 -4850 4807 0
4851 -4808 0
-4852 4851 0
-4852 -4808 0
4852 -4851 4808 0
4852 -4809 0
-4853 4852 0
-4853 -4809 0
4853 -4852 4809 0
4853 -4810 0
-4854 4853 0
-4854 -4810 0
4854 -4853 4810 0
4854 -4811 0
-4855 4854 0
-4855 -4811 0
4855 -4854 4811 0
4855 -4812 0
-4856 4855 0
-4856 -4812 0
4856 -4855 4812 0
4856 -4813 0
-4857 4856 0
-4857 -4813 0
4857 -4856 4813 0
4857 -4814 0
-4858 4857 0
-4858 -4814 0
4858 -4857 4814 0
4858 -4815 0
-4859 4858 0
-4859 -4815 0
4859 -4858 4815 0
4859 -4816 0
-4860 4859 0
-4860 -4816 0
4860 -4859 4816 0
4860 -4817 0
-4861 4860 0
-4861 -4817 0
4861 -4860 4817 0
4861 -4818 0
-4862 4861 0
-4862 -4818 0
4862 -4861 4818 0
4862 -4819 0
-4863 4862 0
-4863 -4819 0
4863 -4862 4819 0
4863 -4820 0
-4864 4863 0
-4864 -4820 0
4864 -4863 4820 0
4864 -4821 0
-4865 4864 0
-4865 -4821 0
4865 -4864 4821 0
4865 -3722 0
-4866 4865 0
-4866 -3722 0
4866 -4865 3722 0
4866 -3941 0
-4867 4866 0
-4867 -3941 0
4867 -4866 3941 0
4867 -4152 0
-4868 4867 0
-4868 -4152 0
4868 -4867 4152 0
4868 -4354 0
-4869 4868 0
-4869 -4354 0
4869 -4868 4354 0
4869 -4547 0
-4870 4869 0
-4870 -4547 0
4870 -4869 4547 0
4870 -4732 0
-4871 4870 0
-4871 -4732 0
4871 -4870 4732 0
4871 -4822 0
-4872 4871 0
-4872 -4822 0
4872 -4871 4822 0
4872 -4823 0
-4873 4872 0
-4873 -4823 0
4873 -4872 4823 0
4873 -3149 0
-4874 4873 0
-4874 -3149 0
4874 -4873 3149 0
4874 -3387 0
-4875 4874 0
-4875 -3387 0
4875 -4874 3387 0
4875 -3617 0
-4876 4875 0
-4876 -3617 0
4876 -4875 3617 0
4876 -3839 0
-4877 4876 0
-4877 -3839 0
4877 -4876 3839 0
4877 -4053 0
-4878 4877 0
-4878 -4053 0
4878 -4877 4053 0
4878 -4259 0
-4879 4878 0
-4879 -4259 0
4879 -4878 4259 0
4879 -4455 0
-4880 4879 0
-4880 -4455 0
4880 -4879 4455 0
4880 -4643 0
-4881 4880 0
-4881 -4643 0
4881 -4880 4643 0
4881 -4824 0
-4882 4881 0
-4882 -4824 0
4882 -4881 4824 0
4882 -4825 0
-4883 4882 0
-4883 -4825 0
4883 -4882 4825 0
4883 -3279 0
-4884 4883 0
-4884 -3279 0
4884 -4883 3279 0
4884 -3512 0
-4885 4884 0
-4885 -3512 0
4885 -4884 3512 0
-4886 10 0
-4886 41 0
4886 -10 -41 0
-4887 11 0
-4887 40 0
4887 -11 -40 0
-4888 2 0
-4888 51 0
4888 -2 -51 0
-4889 12 0
-4889 81 0
4889 -12 -81 0
-4890 13 0
-4890 80 0
4890 -13 -80 0
-4891 14 0
-4891 79 0
4891 -14 -79 0
-4892 15 0
-4892 78 0
4892 -15 -78 0
-4893 16 0
-4893 77 0
4893 -16 -77 0
-4894 17 0
-4894 76 0
4894 -17 -76 0
-4895 18 0
-4895 75 0
4895 -18 -75 0
-4896 19 0
-4896 74 0
4896 -19 -74 0
-4897 20 0
-4897 73 0
4897 -20 -73 0
-4898 21 0
-4898 72 0
4898 -21 -72 0
-4899 22 0
-4899 71 0
4899 -22 -71 0
-4900 23 0
-4900 70 0
4900 -23 -70 0
-4901 24 0
-4901 69 0
4901 -24 -69 0
-4902 25 0
-4902 68 0
4902 -25 -68 0
-4903 26 0
-4903 67 0
4903 -26 -67 0
-4904 27 0
-4904 66 0
4904 -27 -66 0
-4905 28 0
-4905 65 0
4905 -28 -65 0
-4906 29 0
-4906 64 0
4906 -29 -64 0
-4907 30 0
-4907 84 0
4907 -30 -84 0
-4908 31 0
-4908 83 0
4908 -31 -83 0
-4909 32 0
-4909 82 0
4909 -32 -82 0
-4910 40 0
-4910 94 0
4910 -40 -94 0
-4911 41 0
-4911 93 0
4911 -41 -93 0
-4912 51 0
-4912 85 0
4912 -51 -85 0
1 -4710 0
-4710 -4523 0
-4913 -4710 0
-4913 -4523 0
4913 4710 4523 0
4913 -4328 0
-4914 4913 0
-4914 -4328 0
4914 -4913 4328 0
4914 -4125 0
-4915 4914 0
-4915 -4125 0
4915 -4914 4125 0
4915 -3914 0
-4916 4915 0
-4916 -3914 0
4916 -4915 3914 0
4916 -3695 0
-4917 4916 0
-4917 -3695 0
4917 -4916 3695 0
4917 -3468 0
-4918 4917 0
-4918 -3468 0
4918 -4917 3468 0
4918 -3233 0
-4919 4918 0
-4919 -3233 0
4919 -4918 3233 0
4919 -4886 0
-4920 4919 0
-4920 -4886 0
4920 -4919 4886 0
4920 -4887 0
-4921 4920 0
-4921 -4887 0
4921 -4920 4887 0
4921 -4798 0
-4922 4921 0
-4922 -4798 0
4922 -4921 4798 0
4922 -4614 0
-4923 4922 0
-4923 -4614 0
4923 -4922 4614 0
4923 -4422 0
-4924 4923 0
-4924 -4422 0
4924 -4923 4422 0
4924 -4222 0
-4925 4924 0
-4925 -4222 0
4925 -4924 4222 0
4925 -4014 0
-4926 4925 0
-4926 -4014 0
4926 -4925 4014 0
4926 -3798 0
-4927 4926 0
-4927 -3798 0
4927 -4926 3798 0
4927 -3574 0
-4928 4927 0
-4928 -3574 0
4928 -4927 3574 0
4928 -3342 0
-4929 4928 0
-4929 -3342 0
4929 -4928 3342 0
4929 -3102 0
-4930 4929 0
-4930 -3102 0
4930 -4929 3102 0
4930 -4888 0
-4931 4930 0
-4931 -4888 0
4931 -4930 4888 0
4931 -4889 0
-4932 4931 0
-4932 -4889 0
4932 -4931 4889 0
4932 -4890 0
-4933 4932 0
-4933 -4890 0
4933 -4932 4890 0
4933 -4891 0
-4934 4933 0
-4934 -4891 0
4934 -4933 4891 0
4934 -4892 0
-4935 4934 0
-4935 -4892 0
4935 -4934 4892 0
4935 -4893 0
-4936 4935 0
-4936 -4893 0
4936 -4935 4893 0
4936 -4894 0
-4937 4936 0
-4937 -4894 0
4937 -4936 4894 0
4937 -4895 0
-4938 4937 0
-4938 -4895 0
4938 -4937 4895 0
4938 -4896 0
-4939 4938 0
-4939 -4896 0
4939 -4938 4896 0
4939 -4897 0
-4940 4939 0
-4940 -4897 0
4940 -4939 4897 0
4940 -4898 0
-4941 4940 0
-4941 -4898 0
4941 -4940 4898 0
4941 -4899 0
-4942 4941 0
-4942 -4899 0
4942 -4941 4899 0
4942 -4900 0
-4943 4942 0
-4943 -4900 0
4943 -4942 4900 0
4943 -4901 0
-4944 4943 0
-4944 -4901 0
4944 -4943 4901 0
4944 -4902 0
-4945 4944 0
-4945 -4902 0
4945 -4944 4902 0
4945 -4903 0
-4946 4945 0
-4946 -4903 0
4946 -4945 4903 0
4946 -4904 0
-4947 4946 0
-4947 -4904 0
4947 -4946 4904 0
4947 -4905 0
-4948 4947 0
-4948 -4905 0
4948 -4947 4905 0
4948 -4906 0
-4949 4948 0
-4949 -4906 0
4949 -4948 4906 0
4949 -4907 0
-4950 4949 0
-4950 -4907 0
4950 -4949 4907 0
4950 -4908 0
-4951 4950 0
-4951 -4908 0
4951 -4950 4908 0
4951 -4909 0
-4952 4951 0
-4952 -4909 0
4952 -4951 4909 0
4952 -3610 0
-4953 4952 0
-4953 -3610 0
4953 -4952 3610 0
4953 -3833 0
-4954 4953 0
-4954 -3833 0
4954 -4953 3833 0
4954 -4048 0
-4955 4954 0
-4955 -4048 0
4955 -4954 4048 0
4955 -4255 0
-4956 4955 0
-4956 -4255 0
4956 -4955 4255 0
4956 -4452 0
-4957 4956 0
-4957 -4452 0
4957 -4956 4452 0
4957 -4641 0
-4958 4957 0
-4958 -4641 0
4958 -4957 4641 0
4958 -4822 0
-4959 4958 0
-4959 -4822 0
4959 -4958 4822 0
4959 -4910 0
-4960 4959 0
-4960 -4910 0
4960 -4959 4910 0
4960 -4911 0
-4961 4960 0
-4961 -4911 0
4961 -4960 4911 0
4961 -3270 0
-4962 4961 0
-4962 -3270 0
4962 -4961 3270 0
4962 -3504 0
-4963 4962 0
-4963 -3504 0
4963 -4962 3504 0
4963 -3730 0
-4964 4963 0
-4964 -3730 0
4964 -4963 3730 0
4964 -3948 0
-4965 4964 0
-4965 -3948 0
4965 -4964 3948 0
4965 -4158 0
-4966 4965 0
-4966 -4158 0
4966 -4965 4158 0
4966 -4359 0
-4967 4966 0
-4967 -4359 0
4967 -4966 4359 0
4967 -4551 0
-4968 4967 0
-4968 -4551 0
4968 -4967 4551 0
4968 -4735 0
-4969 4968 0
-4969 -4735 0
4969 -4968 4735 0
4969 -4912 0
-4970 4969 0
-4970 -4912 0
4970 -4969 4912 0
4970 -3160 0
-4971 4970 0
-4971 -3160 0
4971 -4970 3160 0
4971 -3397 0
-4972 4971 0
-4972 -3397 0
4972 -4971 3397 0
-4973 11 0
-4973 41 0
4973 -11 -41 0
-4974 2 0
-4974 52 0
4974 -2 -52 0
-4975 12 0
-4975 82 0
4975 -12 -82 0
-4976 13 0
-4976 81 0
4976 -13 -81 0
-4977 14 0
-4977 80 0
4977 -14 -80 0
-4978 15 0
-4978 79 0
4978 -15 -79 0
-4979 16 0
-4979 78 0
4979 -16 -78 0
-4980 17 0
-4980 77 0
4980 -17 -77 0
-4981 18 0
-4981 76 0
4981 -18 -76 0
-4982 19 0
-4982 75 0
4982 -19 -75 0
-4983 20 0
-4983 74 0
4983 -20 -74 0
-4984 21 0
-4984 73 0
4984 -21 -73 0
-4985 22 0
-4985 72 0
4985 -22 -72 0
-4986 23 0
-4986 71 0
4986 -23 -71 0
-4987 24 0
-4987 70 0
4987 -24 -70 0
-4988 25 0
-4988 69 0
4988 -25 -69 0
-4989 26 0
-4989 68 0
4989 -26 -68 0
-4990 27 0
-4990 67 0
4990 -27 -67 0
-4991 28 0
-4991 66 0
4991 -28 -66 0
-4992 29 0
-4992 65 0
4992 -29 -65 0
-4993 30 0
-4993 64 0
4993 -30 -64 0
-4994 31 0
-4994 84 0
4994 -31 -84 0
-4995 32 0
-4995 83 0
4995 -32 -83 0
-4996 41 0
-4996 94 0
4996 -41 -94 0
-4997 52 0
-4997 85 0
4997 -52 -85 0
1 -4800 0
-4800 -4617 0
-4998 -4800 0
-4998 -4617 0
4998 4800 4617 0
4998 -4426 0
-4999 4998 0
-4999 -4426 0
4999 -4998 4426 0
4999 -4227 0
-5000 4999 0
-5000 -4227 0
5000 -4999 4227 0
5000 -4020 0
-5001 5000 0
-5001 -4020 0
5001 -5000 4020 0
5001 -3805 0
-5002 5001 0
-5002 -3805 0
5002 -5001 3805 0
5002 -3582 0
-5003 5002 0
-5003 -3582 0
5003 -5002 3582 0
5003 -3351 0
-5004 5003 0
-5004 -3351 0
5004 -5003 3351 0
5004 -3112 0
-5005 5004 0
-5005 -3112 0
5005 -5004 3112 0
5005 -4973 0
-5006 5005 0
-5006 -4973 0
5006 -5005 4973 0
5006 -4887 0
-5007 5006 0
-5007 -4887 0
5007 -5006 4887 0
5007 -4707 0
-5008 5007 0
-5008 -4707 0
5008 -5007 4707 0
5008 -4519 0
-5009 5008 0
-5009 -4519 0
5009 -5008 4519 0
5009 -4323 0
-5010 5009 0
-5010 -4323 0
5010 -5009 4323 0
5010 -4119 0
-5011 5010 0
-5011 -4119 0
5011 -5010 4119 0
5011 -3907 0
-5012 5011 0
-5012 -3907 0
5012 -5011 3907 0
5012 -3687 0
-5013 5012 0
-5013 -3687 0
5013 -5012 3687 0
5013 -3459 0
-5014 5013 0
-5014 -3459 0
5014 -5013 3459 0
5014 -3223 0
-5015 5014 0
-5015 -3223 0
5015 -5014 3223 0
5015 -4974 0
-5016 5015 0
-5016 -4974 0
5016 -5015 4974 0
5016 -4975 0
-5017 5016 0
-5017 -4975 0
5017 -5016 4975 0
5017 -4976 0
-5018 5017 0
-5018 -4976 0
5018 -5017 4976 0
5018 -4977 0
-5019 5018 0
-5019 -4977 0
5019 -5018 4977 0
5019 -4978 0
-5020 5019 0
-5020 -4978 0
5020 -5019 4978 0
5020 -4979 0
-5021 5020 0
-5021 -4979 0
5021 -5020 4979 0
5021 -4980 0
-5022 5021 0
-5022 -4980 0
5022 -5021 4980 0
5022 -4981 0
-5023 5022 0
-5023 -4981 0
5023 -5022 4981 0
5023 -4982 0
-5024 5023 0
-5024 -4982 0
5024 -5023 4982 0
5024 -4983 0
-5025 5024 0
-5025 -4983 0
5025 -5024 4983 0
5025 -4984 0
-5026 5025 0
-5026 -4984 0
5026 -5025 4984 0
5026 -4985 0
-5027 5026 0
-5027 -4985 0
5027 -5026 4985 0
5027 -4986 0
-5028 5027 0
-5028 -4986 0
5028 -5027 4986 0
5028 -4987 0
-5029 5028 0
-5029 -4987 0
5029 -5028 4987 0
5029 -4988 0
-5030 5029 0
-5030 -4988 0
5030 -5029 4988 0
5030 -4989 0
-5031 5030 0
-5031 -4989 0
5031 -5030 4989 0
5031 -4990 0
-5032 5031 0
-5032 -4990 0
5032 -5031 4990 0
5032 -4991 0
-5033 5032 0
-5033 -4991 0
5033 -5032 4991 0
5033 -4992 0
-5034 5033 0
-5034 -4992 0
5034 -5033 4992 0
5034 -4993 0
-5035 5034 0
-5035 -4993 0
5035 -5034 4993 0
5035 -4994 0
-5036 5035 0
-5036 -4994 0
5036 -5035 4994 0
5036 -4995 0
-5037 5036 0
-5037 -4995 0
5037 -5036 4995 0
5037 -3496 0
-5038 5037 0
-5038 -3496 0
5038 -5037 3496 0
5038 -3723 0
-5039 5038 0
-5039 -3723 0
5039 -5038 3723 0
5039 -3942 0
-5040 5039 0
-5040 -3942 0
5040 -5039 3942 0
5040 -4153 0
-5041 5040 0
-5041 -4153 0
5041 -5040 4153 0
5041 -4355 0
-5042 5041 0
-5042 -4355 0
5042 -5041 4355 0
5042 -4548 0
-5043 5042 0
-5043 -4548 0
5043 -5042 4548 0
5043 -4733 0
-5044 5043 0
-5044 -4733 0
5044 -5043 4733 0
5044 -4910 0
-5045 5044 0
-5045 -4910 0
5045 -5044 4910 0
5045 -4996 0
-5046 5045 0
-5046 -4996 0
5046 -5045 4996 0
5046 -3150 0
-5047 5046 0
-5047 -3150 0
5047 -5046 3150 0
5047 -3388 0
-5048 5047 0
-5048 -3388 0
5048 -5047 3388 0
5048 -3618 0
-5049 5048 0
-5049 -3618 0
5049 -5048 3618 0
5049 -3840 0
-5050 5049 0
-5050 -3840 0
5050 -5049 3840 0
5050 -4054 0
-5051 5050 0
-5051 -4054 0
5051 -5050 4054 0
5051 -4260 0
-5052 5051 0
-5052 -4260 0
5052 -5051 4260 0
5052 -4456 0
-5053 5052 0
-5053 -4456 0
5053 -5052 4456 0
5053 -4644 0
-5054 5053 0
-5054 -4644 0
5054 -5053 4644 0
5054 -4824 0
-5055 5054 0
-5055 -4824 0
5055 -5054 4824 0
5055 -4997 0
-5056 5055 0
-5056 -4997 0
5056 -5055 4997 0
5056 -3280 0
-5057 5056 0
-5057 -3280 0
5057 -5056 3280 0
-5058 11 0
-5058 42 0
5058 -11 -42 0
-5059 12 0
-5059 83 0
5059 -12 -83 0
-5060 13 0
-5060 82 0
5060 -13 -82 0
-5061 14 0
-5061 81 0
5061 -14 -81 0
-5062 15 0
-5062 80 0
5062 -15 -80 0
-5063 16 0
-5063 79 0
5063 -16 -79 0
-5064 17 0
-5064 78 0
5064 -17 -78 0
-5065 18 0
-5065 77 0
5065 -18 -77 0
-5066 19 0
-5066 76 0
5066 -19 -76 0
-5067 20 0
-5067 75 0
5067 -20 -75 0
-5068 21 0
-5068 74 0
5068 -21 -74 0
-5069 22 0
-5069 73 0
5069 -22 -73 0
-5070 23 0
-5070 72 0
5070 -23 -72 0
-5071 24 0
-5071 71 0
5071 -24 -71 0
-5072 25 0
-5072 70 0
5072 -25 -70 0
-5073 26 0
-5073 69 0
5073 -26 -69 0
-5074 27 0
-5074 68 0
5074 -27 -68 0
-5075 28 0
-5075 67 0
5075 -28 -67 0
-5076 29 0
-5076 66 0
5076 -29 -66 0
-5077 30 0
-5077 65 0
5077 -30 -65 0
-5078 31 0
-5078 64 0
5078 -31 -64 0
-5079 32 0
-5079 84 0
5079 -32 -84 0
-5080 42 0
-5080 94 0
5080 -42 -94 0
1 -4888 0
-4888 -4709 0
-5081 -4888 0
-5081 -4709 0
5081 4888 4709 0
5081 -4522 0
-5082 5081 0
-5082 -4522 0
5082 -5081 4522 0
5082 -4327 0
-5083 5082 0
-5083 -4327 0
5083 -5082 4327 0
5083 -4124 0
-5084 5083 0
-5084 -4124 0
5084 -5083 4124 0
5084 -3913 0
-5085 5084 0
-5085 -3913 0
5085 -5084 3913 0
5085 -3694 0
-5086 5085 0
-5086 -3694 0
5086 -5085 3694 0
5086 -3467 0
-5087 5086 0
-5087 -3467 0
5087 -5086 3467 0
5087 -3232 0
-5088 5087 0
-5088 -3232 0
5088 -5087 3232 0
5088 -5058 0
-5089 5088 0
-5089 -5058 0
5089 -5088 5058 0
5089 -4973 0
-5090 5089 0
-5090 -4973 0
5090 -5089 4973 0
5090 -4797 0
-5091 5090 0
-5091 -4797 0
5091 -5090 4797 0
5091 -4613 0
-5092 5091 0
-5092 -4613 0
5092 -5091 4613 0
5092 -4421 0
-5093 5092 0
-5093 -4421 0
5093 -5092 4421 0
5093 -4221 0
-5094 5093 0
-5094 -4221 0
5094 -5093 4221 0
5094 -4013 0
-5095 5094 0
-5095 -4013 0
5095 -5094 4013 0
5095 -3797 0
-5096 5095 0
-5096 -3797 0
5096 -5095 3797 0
5096 -3573 0
-5097 5096 0
-5097 -3573 0
5097 -5096 3573 0
5097 -3341 0
-5098 5097 0
-5098 -3341 0
5098 -5097 3341 0
5098 -3101 0
-5099 5098 0
-5099 -3101 0
5099 -5098 3101 0
5099 -5059 0
-5100 5099 0
-5100 -5059 0
5100 -5099 5059 0
5100 -5060 0
-5101 5100 0
-5101 -5060 0
5101 -5100 5060 0
5101 -5061 0
-5102 5101 0
-5102 -5061 0
5102 -5101 5061 0
5102 -5062 0
-5103 5102 0
-5103 -5062 0
5103 -5102 5062 0
5103 -5063 0
-5104 5103 0
-5104 -5063 0
5104 -5103 5063 0
5104 -5064 0
-5105 5104 0
-5105 -5064 0
5105 -5104 5064 0
5105 -5065 0
-5106 5105 0
-5106 -5065 0
5106 -5105 5065 0
5106 -5066 0
-5107 5106 0
-5107 -5066 0
5107 -5106 5066 0
5107 -5067 0
-5108 5107 0
-5108 -5067 0
5108 -5107 5067 0
5108 -5068 0
-5109 5108 0
-5109 -5068 0
5109 -5108 5068 0
5109 -5069 0
-5110 5109 0
-5110 -5069 0
5110 -5109 5069 0
5110 -5070 0
-5111 5110 0
-5111 -5070 0
5111 -5110 5070 0
5111 -5071 0
-5112 5111 0
-5112 -5071 0
5112 -5111 5071 0
5112 -5072 0
-5113 5112 0
-5113 -5072 0
5113 -5112 5072 0
5113 -5073 0
-5114 5113 0
-5114 -5073 0
5114 -5113 5073 0
5114 -5074 0
-5115 5114 0
-5115 -5074 0
5115 -5114 5074 0
5115 -5075 0
-5116 5115 0
-5116 -5075 0
5116 -5115 5075 0
5116 -5076 0
-5117 5116 0
-5117 -5076 0
5117 -5116 5076 0
5117 -5077 0
-5118 5117 0
-5118 -5077 0
5118 -5117 5077 0
5118 -5078 0
-5119 5118 0
-5119 -5078 0
5119 -5118 5078 0
5119 -5079 0
-5120 5119 0
-5120 -5079 0
5120 -5119 5079 0
5120 -3380 0
-5121 5120 0
-5121 -3380 0
5121 -5120 3380 0
5121 -3611 0
-5122 5121 0
-5122 -3611 0
5122 -5121 3611 0
5122 -3834 0
-5123 5122 0
-5123 -3834 0
5123 -5122 3834 0
5123 -4049 0
-5124 5123 0
-5124 -4049 0
5124 -5123 4049 0
5124 -4256 0
-5125 5124 0
-5125 -4256 0
5125 -5124 4256 0
5125 -4453 0
-5126 5125 0
-5126 -4453 0
5126 -5125 4453 0
5126 -4642 0
-5127 5126 0
-5127 -4642 0
5127 -5126 4642 0
5127 -4823 0
-5128 5127 0
-5128 -4823 0
5128 -5127 4823 0
5128 -4996 0
-5129 5128 0
-5129 -4996 0
5129 -5128 4996 0
5129 -5080 0
-5130 5129 0
-5130 -5080 0
5130 -5129 5080 0
5130 -3271 0
-5131 5130 0
-5131 -3271 0
5131 -5130 3271 0
5131 -3505 0
-5132 5131 0
-5132 -3505 0
5132 -5131 3505 0
5132 -3731 0
-5133 5132 0
-5133 -3731 0
5133 -5132 3731 0
5133 -3949 0
-5134 5133 0
-5134 -3949 0
5134 -5133 3949 0
5134 -4159 0
-5135 5134 0
-5135 -4159 0
5135 -5134 4159 0
5135 -4360 0
-5136 5135 0
-5136 -4360 0
5136 -5135 4360 0
5136 -4552 0
-5137 5136 0
-5137 -4552 0
5137 -5136 4552 0
5137 -4736 0
-5138 5137 0
-5138 -4736 0
5138 -5137 4736 0
5138 -4912 0
-5139 5138 0
-5139 -4912 0
5139 -5138 4912 0
5139 -3161 0
-5140 5139 0
-5140 -3161 0
5140 -5139 3161 0
-5141 12 0
-5141 84 0
5141 -12 -84 0
-5142 13 0
-5142 83 0
5142 -13 -83 0
-5143 14 0
-5143 82 0
5143 -14 -82 0
-5144 15 0
-5144 81 0
5144 -15 -81 0
-5145 16 0
-5145 80 0
5145 -16 -80 0
-5146 17 0
-5146 79 0
5146 -17 -79 0
-5147 18 0
-5147 78 0
5147 -18 -78 0
-5148 19 0
-5148 77 0
5148 -19 -77 0
-5149 20 0
-5149 76 0
5149 -20 -76 0
-5150 21 0
-5150 75 0
5150 -21 -75 0
-5151 22 0
-5151 74 0
5151 -22 -74 0
-5152 23 0
-5152 73 0
5152 -23 -73 0
-5153 24 0
-5153 72 0
5153 -24 -72 0
-5154 25 0
-5154 71 0
5154 -25 -71 0
-5155 26 0
-5155 70 0
5155 -26 -70 0
-5156 27 0
-5156 69 0
5156 -27 -69 0
-5157 28 0
-5157 68 0
5157 -28 -68 0
-5158 29 0
-5158 67 0
5158 -29 -67 0
-5159 30 0
-5159 66 0
5159 -30 -66 0
-5160 31 0
-5160 65 0
5160 -31 -65 0
-5161 32 0
-5161 64 0
5161 -32 -64 0
1 -4974 0
-4974 -4799 0
-5162 -4974 0
-5162 -4799 0
5162 4974 4799 0
5162 -4616 0
-5163 5162 0
-5163 -4616 0
5163 -5162 4616 0
5163 -4425 0
-5164 5163 0
-5164 -4425 0
5164 -5163 4425 0
5164 -4226 0
-5165 5164 0
-5165 -4226 0
5165 -5164 4226 0
5165 -4019 0
-5166 5165 0
-5166 -4019 0
5166 -5165 4019 0
5166 -3804 0
-5167 5166 0
-5167 -3804 0
5167 -5166 3804 0
5167 -3581 0
-5168 5167 0
-5168 -3581 0
5168 -5167 3581 0
5168 -3350 0
-5169 5168 0
-5169 -3350 0
5169 -5168 3350 0
5169 -3111 0
-5170 5169 0
-5170 -3111 0
5170 -5169 3111 0
5170 -5058 0
-5171 5170 0
-5171 -5058 0
5171 -5170 5058 0
5171 -4886 0
-5172 5171 0
-5172 -4886 0
5172 -5171 4886 0
5172 -4706 0
-5173 5172 0
-5173 -4706 0
5173 -5172 4706 0
5173 -4518 0
-5174 5173 0
-5174 -4518 0
5174 -5173 4518 0
5174 -4322 0
-5175 5174 0
-5175 -4322 0
5175 -5174 4322 0
5175 -4118 0
-5176 5175 0
-5176 -4118 0
5176 -5175 4118 0
5176 -3906 0
-5177 5176 0
-5177 -3906 0
5177 -5176 3906 0
5177 -3686 0
-5178 5177 0
-5178 -3686 0
5178 -5177 3686 0
5178 -3458 0
-5179 5178 0
-5179 -3458 0
5179 -5178 3458 0
5179 -3222 0
-5180 5179 0
-5180 -3222 0
5180 -5179 3222 0
5180 -5141 0
-5181 5180 0
-5181 -5141 0
5181 -5180 5141 0
5181 -5142 0
-5182 5181 0
-5182 -5142 0
5182 -5181 5142 0
5182 -5143 0
-5183 5182 0
-5183 -5143 0
5183 -5182 5143 0
5183 -5144 0
-5184 5183 0
-5184 -5144 0
5184 -5183 5144 0
5184 -5145 0
-5185 5184 0
-5185 -5145 0
5185 -5184 5145 0
5185 -5146 0
-5186 5185 0
-5186 -5146 0
5186 -5185 5146 0
5186 -5147 0
-5187 5186 0
-5187 -5147 0
5187 -5186 5147 0
5187 -5148 0
-5188 5187 0
-5188 -5148 0
5188 -5187 5148 0
5188 -5149 0
-5189 5188 0
-5189 -5149 0
5189 -5188 5149 0
5189 -5150 0
-5190 5189 0
-5190 -5150 0
5190 -5189 5150 0
5190 -5151 0
-5191 5190 0
-5191 -5151 0
5191 -5190 5151 0
5191 -5152 0
-5192 5191 0
-5192 -5152 0
5192 -5191 5152 0
5192 -5153 0
-5193 5192 0
-5193 -5153 0
5193 -5192 5153 0
5193 -5154 0
-5194 5193 0
-5194 -5154 0
5194 -5193 5154 0
5194 -5155 0
-5195 5194 0
-5195 -5155 0
5195 -5194 5155 0
5195 -5156 0
-5196 5195 0
-5196 -5156 0
5196 -5195 5156 0
5196 -5157 0
-5197 5196 0
-5197 -5157 0
5197 -5196 5157 0
5197 -5158 0
-5198 5197 0
-5198 -5158 0
5198 -5197 5158 0
5198 -5159 0
-5199 5198 0
-5199 -5159 0
5199 -5198 5159 0
5199 -5160 0
-5200 5199 0
-5200 -5160 0
5200 -5199 5160 0
5200 -5161 0
-5201 5200 0
-5201 -5161 0
5201 -5200 5161 0
5201 -3262 0
-5202 5201 0
-5202 -3262 0
5202 -5201 3262 0
5202 -3497 0
-5203 5202 0
-5203 -3497 0
5203 -5202 3497 0
5203 -3724 0
-5204 5203 0
-5204 -3724 0
5204 -5203 3724 0
5204 -3943 0
-5205 5204 0
-5205 -3943 0
5205 -5204 3943 0
5205 -4154 0
-5206 5205 0
-5206 -4154 0
5206 -5205 4154 0
5206 -4356 0
-5207 5206 0
-5207 -4356 0
5207 -5206 4356 0
5207 -4549 0
-5208 5207 0
-5208 -4549 0
5208 -5207 4549 0
5208 -4734 0
-5209 5208 0
-5209 -4734 0
5209 -5208 4734 0
5209 -4911 0
-5210 5209 0
-5210 -4911 0
5210 -5209 4911 0
5210 -5080 0
-5211 5210 0
-5211 -5080 0
5211 -5210 5080 0
5211 -3151 0
-5212 5211 0
-5212 -3151 0
5212 -5211 3151 0
5212 -3389 0
-5213 5212 0
-5213 -3389 0
5213 -5212 3389 0
5213 -3619 0
-5214 5213 0
-5214 -3619 0
5214 -5213 3619 0
5214 -3841 0
-5215 5214 0
-5215 -3841 0
5215 -5214 3841 0
5215 -4055 0
-5216 5215 0
-5216 -4055 0
5216 -5215 4055 0
5216 -4261 0
-5217 5216 0
-5217 -4261 0
5217 -5216 4261 0
5217 -4457 0
-5218 5217 0
-5218 -4457 0
5218 -5217 4457 0
5218 -4645 0
-5219 5218 0
-5219 -4645 0
5219 -5218 4645 0
5219 -4825 0
-5220 5219 0
-5220 -4825 0
5220 -5219 4825 0
5220 -4997 0
-5221 5220 0
-5221 -4997 0
5221 -5220 4997 0
-5222 55 0
-5222 54 0
5222 -55 -54 0
-5223 56 0
-5223 55 0
5223 -56 -55 0
-5224 57 0
-5224 56 0
5224 -57 -56 0
-5225 58 0
-5225 57 0
5225 -58 -57 0
-5226 59 0
-5226 58 0
5226 -59 -58 0
-5227 60 0
-5227 59 0
5227 -60 -59 0
-5228 61 0
-5228 60 0
5228 -61 -60 0
-5229 62 0
-5229 61 0
5229 -62 -61 0
-5230 63 0
-5230 62 0
5230 -63 -62 0
-5231 64 0
-5231 84 0
5231 -64 -84 0
-5232 65 0
-5232 64 0
5232 -65 -64 0
-5233 66 0
-5233 65 0
5233 -66 -65 0
-5234 67 0
-5234 66 0
5234 -67 -66 0
-5235 68 0
-5235 67 0
5235 -68 -67 0
-5236 69 0
-5236 68 0
5236 -69 -68 0
-5237 70 0
-5237 69 0
5237 -70 -69 0
-5238 71 0
-5238 70 0
5238 -71 -70 0
-5239 72 0
-5239 71 0
5239 -72 -71 0
-5240 73 0
-5240 72 0
5240 -73 -72 0
-5241 74 0
-5241 73 0
5241 -74 -73 0
-5242 75 0
-5242 74 0
5242 -75 -74 0
-5243 76 0
-5243 75 0
5243 -76 -75 0
-5244 77 0
-5244 76 0
5244 -77 -76 0
-5245 78 0
-5245 77 0
5245 -78 -77 0
-5246 79 0
-5246 78 0
5246 -79 -78 0
-5247 80 0
-5247 79 0
5247 -80 -79 0
-5248 81 0
-5248 80 0
5248 -81 -80 0
-5249 82 0
-5249 81 0
5249 -82 -81 0
-5250 83 0
-5250 82 0
5250 -83 -82 0
-5251 84 0
-5251 83 0
5251 -84 -83 0
-5222 0
-5223 0
-5224 0
-5225 0
-5226 0
-5227 0
-5228 0
-5229 0
-5230 0
1 -105 0
-105 -104 0
-5252 -105 0
-5252 -104 0
5252 105 104 0
5252 -124 0
-5253 5252 0
-5253 -124 0
5253 -5252 124 0
5253 -123 0
-5254 5253 0
-5254 -123 0
5254 -5253 123 0
5254 -122 0
-5255 5254 0
-5255 -122 0
5255 -5254 122 0
5255 -121 0
-5256 5255 0
-5256 -121 0
5256 -5255 121 0
5256 -120 0
-5257 5256 0
-5257 -120 0
5257 -5256 120 0
5257 -119 0
-5258 5257 0
-5258 -119 0
5258 -5257 119 0
5258 -118 0
-5259 5258 0
-5259 -118 0
5259 -5258 118 0
5259 -117 0
-5260 5259 0
-5260 -117 0
5260 -5259 117 0
5260 -116 0
-5261 5260 0
-5261 -116 0
5261 -5260 116 0
5261 -115 0
-5262 5261 0
-5262 -115 0
5262 -5261 115 0
5262 -114 0
-5263 5262 0
-5263 -114 0
5263 -5262 114 0
5263 -113 0
-5264 5263 0
-5264 -113 0
5264 -5263 113 0
5264 -112 0
-5265 5264 0
-5265 -112 0
5265 -5264 112 0
5265 -111 0
-5266 5265 0
-5266 -111 0
5266 -5265 111 0
5266 -110 0
-5267 5266 0
-5267 -110 0
5267 -5266 110 0
5267 -109 0
-5268 5267 0
-5268 -109 0
5268 -5267 109 0
5268 -108 0
-5269 5268 0
-5269 -108 0
5269 -5268 108 0
5269 -107 0
-5270 5269 0
-5270 -107 0
5270 -5269 107 0
5270 -106 0
-5271 5270 0
-5271 -106 0
5271 -5270 106 0
5271 -63 0
-5272 5271 0
-5272 -63 0
5272 -5271 63 0
5272 -5231 0
-5273 5272 0
-5273 -5231 0
5273 -5272 5231 0
5273 -5232 0
-5274 5273 0
-5274 -5232 0
5274 -5273 5232 0
5274 -5233 0
-5275 5274 0
-5275 -5233 0
5275 -5274 5233 0
5275 -5234 0
-5276 5275 0
-5276 -5234 0
5276 -5275 5234 0
5276 -5235 0
-5277 5276 0
-5277 -5235 0
5277 -5276 5235 0
5277 -5236 0
-5278 5277 0
-5278 -5236 0
5278 -5277 5236 0
5278 -5237 0
-5279 5278 0
-5279 -5237 0
5279 -5278 5237 0
5279 -5238 0
-5280 5279 0
-5280 -5238 0
5280 -5279 5238 0
5280 -5239 0
-5281 5280 0
-5281 -5239 0
5281 -5280 5239 0
5281 -5240 0
-5282 5281 0
-5282 -5240 0
5282 -5281 5240 0
5282 -5241 0
-5283 5282 0
-5283 -5241 0
5283 -5282 5241 0
5283 -5242 0
-5284 5283 0
-5284 -5242 0
5284 -5283 5242 0
5284 -5243 0
-5285 5284 0
-5285 -5243 0
5285 -5284 5243 0
5285 -5244 0
-5286 5285 0
-5286 -5244 0
5286 -5285 5244 0
5286 -5245 0
-5287 5286 0
-5287 -5245 0
5287 -5286 5245 0
5287 -5246 0
-5288 5287 0
-5288 -5246 0
5288 -5287 5246 0
5288 -5247 0
-5289 5288 0
-5289 -5247 0
5289 -5288 5247 0
5289 -5248 0
-5290 5289 0
-5290 -5248 0
5290 -5289 5248 0
5290 -5249 0
-5291 5290 0
-5291 -5249 0
5291 -5290 5249 0
5291 -5250 0
-5292 5291 0
-5292 -5250 0
5292 -5291 5250 0
5292 -5251 0
-5293 5292 0
-5293 -5251 0
5293 -5292 5251 0
-5294 56 0
-5294 54 0
5294 -56 -54 0
-5295 57 0
-5295 55 0
5295 -57 -55 0
-5296 58 0
-5296 56 0
5296 -58 -56 0
-5297 59 0
-5297 57 0
5297 -59 -57 0
-5298 60 0
-5298 58 0
5298 -60 -58 0
-5299 61 0
-5299 59 0
5299 -61 -59 0
-5300 62 0
-5300 60 0
5300 -62 -60 0
-5301 63 0
-5301 61 0
5301 -63 -61 0
-5302 64 0
-5302 83 0
5302 -64 -83 0
-5303 65 0
-5303 84 0
5303 -65 -84 0
-5304 66 0
-5304 64 0
5304 -66 -64 0
-5305 67 0
-5305 65 0
5305 -67 -65 0
-5306 68 0
-5306 66 0
5306 -68 -66 0
-5307 69 0
-5307 67 0
5307 -69 -67 0
-5308 70 0
-5308 68 0
5308 -70 -68 0
-5309 71 0
-5309 69 0
5309 -71 -69 0
-5310 72 0
-5310 70 0
5310 -72 -70 0
-5311 73 0
-5311 71 0
5311 -73 -71 0
-5312 74 0
-5312 72 0
5312 -74 -72 0
-5313 75 0
-5313 73 0
5313 -75 -73 0
-5314 76 0
-5314 74 0
5314 -76 -74 0
-5315 77 0
-5315 75 0
5315 -77 -75 0
-5316 78 0
-5316 76 0
5316 -78 -76 0
-5317 79 0
-5317 77 0
5317 -79 -77 0
-5318 80 0
-5318 78 0
5318 -80 -78 0
-5319 81 0
-5319 79 0
5319 -81 -79 0
-5320 82 0
-5320 80 0
5320 -82 -80 0
-5321 83 0
-5321 81 0
5321 -83 -81 0
-5322 84 0
-5322 82 0
5322 -84 -82 0
-5294 0
-5295 0
-5296 0
-5297 0
-5298 0
-5299 0
-5300 0
-5301 0
-5230 0
1 -198 0
-198 -197 0
-5323 -198 0
-5323 -197 0
5323 198 197 0
5323 -196 0
-5324 5323 0
-5324 -196 0
5324 -5323 196 0
5324 -216 0
-5325 5324 0
-5325 -216 0
5325 -5324 216 0
5325 -215 0
-5326 5325 0
-5326 -215 0
5326 -5325 215 0
5326 -214 0
-5327 5326 0
-5327 -214 0
5327 -5326 214 0
5327 -213 0
-5328 5327 0
-5328 -213 0
5328 -5327 213 0
5328 -212 0
-5329 5328 0
-5329 -212 0
5329 -5328 212 0
5329 -211 0
-5330 5329 0
-5330 -211 0
5330 -5329 211 0
5330 -210 0
-5331 5330 0
-5331 -210 0
5331 -5330 210 0
5331 -209 0
-5332 5331 0
-5332 -209 0
5332 -5331 209 0
5332 -208 0
-5333 5332 0
-5333 -208 0
5333 -5332 208 0
5333 -207 0
-5334 5333 0
-5334 -207 0
5334 -5333 207 0
5334 -206 0
-5335 5334 0
-5335 -206 0
5335 -5334 206 0
5335 -205 0
-5336 5335 0
-5336 -205 0
5336 -5335 205 0
5336 -204 0
-5337 5336 0
-5337 -204 0
5337 -5336 204 0
5337 -203 0
-5338 5337 0
-5338 -203 0
5338 -5337 203 0
5338 -202 0
-5339 5338 0
-5339 -202 0
5339 -5338 202 0
5339 -201 0
-5340 5339 0
-5340 -201 0
5340 -5339 201 0
5340 -200 0
-5341 5340 0
-5341 -200 0
5341 -5340 200 0
5341 -199 0
-5342 5341 0
-5342 -199 0
5342 -5341 199 0
5342 -54 0
-5343 5342 0
-5343 -54 0
5343 -5342 54 0
5343 -5302 0
-5344 5343 0
-5344 -5302 0
5344 -5343 5302 0
5344 -5303 0
-5345 5344 0
-5345 -5303 0
5345 -5344 5303 0
5345 -5304 0
-5346 5345 0
-5346 -5304 0
5346 -5345 5304 0
5346 -5305 0
-5347 5346 0
-5347 -5305 0
5347 -5346 5305 0
5347 -5306 0
-5348 5347 0
-5348 -5306 0
5348 -5347 5306 0
5348 -5307 0
-5349 5348 0
-5349 -5307 0
5349 -5348 5307 0
5349 -5308 0
-5350 5349 0
-5350 -5308 0
5350 -5349 5308 0
5350 -5309 0
-5351 5350 0
-5351 -5309 0
5351 -5350 5309 0
5351 -5310 0
-5352 5351 0
-5352 -5310 0
5352 -5351 5310 0
5352 -5311 0
-5353 5352 0
-5353 -5311 0
5353 -5352 5311 0
5353 -5312 0
-5354 5353 0
-5354 -5312 0
5354 -5353 5312 0
5354 -5313 0
-5355 5354 0
-5355 -5313 0
5355 -5354 5313 0
5355 -5314 0
-5356 5355 0
-5356 -5314 0
5356 -5355 5314 0
5356 -5315 0
-5357 5356 0
-5357 -5315 0
5357 -5356 5315 0
5357 -5316 0
-5358 5357 0
-5358 -5316 0
5358 -5357 5316 0
5358 -5317 0
-5359 5358 0
-5359 -5317 0
5359 -5358 5317 0
5359 -5318 0
-5360 5359 0
-5360 -5318 0
5360 -5359 5318 0
5360 -5319 0
-5361 5360 0
-5361 -5319 0
5361 -5360 5319 0
5361 -5320 0
-5362 5361 0
-5362 -5320 0
5362 -5361 5320 0
5362 -5321 0
-5363 5362 0
-5363 -5321 0
5363 -5362 5321 0
5363 -5322 0
-5364 5363 0
-5364 -5322 0
5364 -5363 5322 0
-5365 57 0
-5365 54 0
5365 -57 -54 0
-5366 58 0
-5366 55 0
5366 -58 -55 0
-5367 59 0
-5367 56 0
5367 -59 -56 0
-5368 60 0
-5368 57 0
5368 -60 -57 0
-5369 61 0
-5369 58 0
5369 -61 -58 0
-5370 62 0
-5370 59 0
5370 -62 -59 0
-5371 63 0
-5371 60 0
5371 -63 -60 0
-5372 64 0
-5372 82 0
5372 -64 -82 0
-5373 65 0
-5373 83 0
5373 -65 -83 0
-5374 66 0
-5374 84 0
5374 -66 -84 0
-5375 67 0
-5375 64 0
5375 -67 -64 0
-5376 68 0
-5376 65 0
5376 -68 -65 0
-5377 69 0
-5377 66 0
5377 -69 -66 0
-5378 70 0
-5378 67 0
5378 -70 -67 0
-5379 71 0
-5379 68 0
5379 -71 -68 0
-5380 72 0
-5380 69 0
5380 -72 -69 0
-5381 73 0
-5381 70 0
5381 -73 -70 0
-5382 74 0
-5382 71 0
5382 -74 -71 0
-5383 75 0
-5383 72 0
5383 -75 -72 0
-5384 76 0
-5384 73 0
5384 -76 -73 0
-5385 77 0
-5385 74 0
5385 -77 -74 0
-5386 78 0
-5386 75 0
5386 -78 -75 0
-5387 79 0
-5387 76 0
5387 -79 -76 0
-5388 80 0
-5388 77 0
5388 -80 -77 0
-5389 81 0
-5389 78 0
5389 -81 -78 0
-5390 82 0
-5390 79 0
5390 -82 -79 0
-5391 83 0
-5391 80 0
5391 -83 -80 0
-5392 84 0
-5392 81 0
5392 -84 -81 0
-5222 0
-5365 0
-5366 0
-5367 0
-5368 0
-5369 0
-5370 0
-5371 0
-5301 0
1 -290 0
-290 -289 0
-5393 -290 0
-5393 -289 0
5393 290 289 0
5393 -288 0
-5394 5393 0
-5394 -288 0
5394 -5393 288 0
5394 -287 0
-5395 5394 0
-5395 -287 0
5395 -5394 287 0
5395 -307 0
-5396 5395 0
-5396 -307 0
5396 -5395 307 0
5396 -306 0
-5397 5396 0
-5397 -306 0
5397 -5396 306 0
5397 -305 0
-5398 5397 0
-5398 -305 0
5398 -5397 305 0
5398 -304 0
-5399 5398 0
-5399 -304 0
5399 -5398 304 0
5399 -303 0
-5400 5399 0
-5400 -303 0
5400 -5399 303 0
5400 -302 0
-5401 5400 0
-5401 -302 0
5401 -5400 302 0
5401 -301 0
-5402 5401 0
-5402 -301 0
5402 -5401 301 0
5402 -300 0
-5403 5402 0
-5403 -300 0
5403 -5402 300 0
5403 -299 0
-5404 5403 0
-5404 -299 0
5404 -5403 299 0
5404 -298 0
-5405 5404 0
-5405 -298 0
5405 -5404 298 0
5405 -297 0
-5406 5405 0
-5406 -297 0
5406 -5405 297 0
5406 -296 0
-5407 5406 0
-5407 -296 0
5407 -5406 296 0
5407 -295 0
-5408 5407 0
-5408 -295 0
5408 -5407 295 0
5408 -294 0
-5409 5408 0
-5409 -294 0
5409 -5408 294 0
5409 -293 0
-5410 5409 0
-5410 -293 0
5410 -5409 293 0
5410 -292 0
-5411 5410 0
-5411 -292 0
5411 -5410 292 0
5411 -291 0
-5412 5411 0
-5412 -291 0
5412 -5411 291 0
5412 -62 0
-5413 5412 0
-5413 -62 0
5413 -5412 62 0
5413 -5372 0
-5414 5413 0
-5414 -5372 0
5414 -5413 5372 0
5414 -5373 0
-5415 5414 0
-5415 -5373 0
5415 -5414 5373 0
5415 -5374 0
-5416 5415 0
-5416 -5374 0
5416 -5415 5374 0
5416 -5375 0
-5417 5416 0
-5417 -5375 0
5417 -5416 5375 0
5417 -5376 0
-5418 5417 0
-5418 -5376 0
5418 -5417 5376 0
5418 -5377 0
-5419 5418 0
-5419 -5377 0
5419 -5418 5377 0
5419 -5378 0
-5420 5419 0
-5420 -5378 0
5420 -5419 5378 0
5420 -5379 0
-5421 5420 0
-5421 -5379 0
5421 -5420 5379 0
5421 -5380 0
-5422 5421 0
-5422 -5380 0
5422 -5421 5380 0
5422 -5381 0
-5423 5422 0
-5423 -5381 0
5423 -5422 5381 0
5423 -5382 0
-5424 5423 0
-5424 -5382 0
5424 -5423 5382 0
5424 -5383 0
-5425 5424 0
-5425 -5383 0
5425 -5424 5383 0
5425 -5384 0
-5426 5425 0
-5426 -5384 0
5426 -5425 5384 0
5426 -5385 0
-5427 5426 0
-5427 -5385 0
5427 -5426 5385 0
5427 -5386 0
-5428 5427 0
-5428 -5386 0
5428 -5427 5386 0
5428 -5387 0
-5429 5428 0
-5429 -5387 0
5429 -5428 5387 0
5429 -5388 0
-5430 5429 0
-5430 -5388 0
5430 -5429 5388 0
5430 -5389 0
-5431 5430 0
-5431 -5389 0
5431 -5430 5389 0
5431 -5390 0
-5432 5431 0
-5432 -5390 0
5432 -5431 5390 0
5432 -5391 0
-5433 5432 0
-5433 -5391 0
5433 -5432 5391 0
5433 -5392 0
-5434 5433 0
-5434 -5392 0
5434 -5433 5392 0
-5435 58 0
-5435 54 0
5435 -58 -54 0
-5436 59 0
-5436 55 0
5436 -59 -55 0
-5437 60 0
-5437 56 0
5437 -60 -56 0
-5438 61 0
-5438 57 0
5438 -61 -57 0
-5439 62 0
-5439 58 0
5439 -62 -58 0
-5440 63 0
-5440 59 0
5440 -63 -59 0
-5441 64 0
-5441 81 0
5441 -64 -81 0
-5442 65 0
-5442 82 0
5442 -65 -82 0
-5443 66 0
-5443 83 0
5443 -66 -83 0
-5444 67 0
-5444 84 0
5444 -67 -84 0
-5445 68 0
-5445 64 0
5445 -68 -64 0
-5446 69 0
-5446 65 0
5446 -69 -65 0
-5447 70 0
-5447 66 0
5447 -70 -66 0
-5448 71 0
-5448 67 0
5448 -71 -67 0
-5449 72 0
-5449 68 0
5449 -72 -68 0
-5450 73 0
-5450 69 0
5450 -73 -69 0
-5451 74 0
-5451 70 0
5451 -74 -70 0
-5452 75 0
-5452 71 0
5452 -75 -71 0
-5453 76 0
-5453 72 0
5453 -76 -72 0
-5454 77 0
-5454 73 0
5454 -77 -73 0
-5455 78 0
-5455 74 0
5455 -78 -74 0
-5456 79 0
-5456 75 0
5456 -79 -75 0
-5457 80 0
-5457 76 0
5457 -80 -76 0
-5458 81 0
-5458 77 0
5458 -81 -77 0
-5459 82 0
-5459 78 0
5459 -82 -78 0
-5460 83 0
-5460 79 0
5460 -83 -79 0
-5461 84 0
-5461 80 0
5461 -84 -80 0
-5294 0
-5435 0
-5436 0
-5437 0
-5438 0
-5439 0
-5440 0
-5371 0
-5229 0
1 -381 0
-381 -380 0
-5462 -381 0
-5462 -380 0
5462 381 380 0
5462 -379 0
-5463 5462 0
-5463 -379 0
5463 -5462 379 0
5463 -378 0
-5464 5463 0
-5464 -378 0
5464 -5463 378 0
5464 -377 0
-5465 5464 0
-5465 -377 0
5465 -5464 377 0
5465 -397 0
-5466 5465 0
-5466 -397 0
5466 -5465 397 0
5466 -396 0
-5467 5466 0
-5467 -396 0
5467 -5466 396 0
5467 -395 0
-5468 5467 0
-5468 -395 0
5468 -5467 395 0
5468 -394 0
-5469 5468 0
-5469 -394 0
5469 -5468 394 0
5469 -393 0
-5470 5469 0
-5470 -393 0
5470 -5469 393 0
5470 -392 0
-5471 5470 0
-5471 -392 0
5471 -5470 392 0
5471 -391 0
-5472 5471 0
-5472 -391 0
5472 -5471 391 0
5472 -390 0
-5473 5472 0
-5473 -390 0
5473 -5472 390 0
5473 -389 0
-5474 5473 0
-5474 -389 0
5474 -5473 389 0
5474 -388 0
-5475 5474 0
-5475 -388 0
5475 -5474 388 0
5475 -387 0
-5476 5475 0
-5476 -387 0
5476 -5475 387 0
5476 -386 0
-5477 5476 0
-5477 -386 0
5477 -5476 386 0
5477 -385 0
-5478 5477 0
-5478 -385 0
5478 -5477 385 0
5478 -384 0
-5479 5478 0
-5479 -384 0
5479 -5478 384 0
5479 -383 0
-5480 5479 0
-5480 -383 0
5480 -5479 383 0
5480 -382 0
-5481 5480 0
-5481 -382 0
5481 -5480 382 0
5481 -55 0
-5482 5481 0
-5482 -55 0
5482 -5481 55 0
5482 -5441 0
-5483 5482 0
-5483 -5441 0
5483 -5482 5441 0
5483 -5442 0
-5484 5483 0
-5484 -5442 0
5484 -5483 5442 0
5484 -5443 0
-5485 5484 0
-5485 -5443 0
5485 -5484 5443 0
5485 -5444 0
-5486 5485 0
-5486 -5444 0
5486 -5485 5444 0
5486 -5445 0
-5487 5486 0
-5487 -5445 0
5487 -5486 5445 0
5487 -5446 0
-5488 5487 0
-5488 -5446 0
5488 -5487 5446 0
5488 -5447 0
-5489 5488 0
-5489 -5447 0
5489 -5488 5447 0
5489 -5448 0
-5490 5489 0
-5490 -5448 0
5490 -5489 5448 0
5490 -5449 0
-5491 5490 0
-5491 -5449 0
5491 -5490 5449 0
5491 -5450 0
-5492 5491 0
-5492 -5450 0
5492 -5491 5450 0
5492 -5451 0
-5493 5492 0
-5493 -5451 0
5493 -5492 5451 0
5493 -5452 0
-5494 5493 0
-5494 -5452 0
5494 -5493 5452 0
5494 -5453 0
-5495 5494 0
-5495 -5453 0
5495 -5494 5453 0
5495 -5454 0
-5496 5495 0
-5496 -5454 0
5496 -5495 5454 0
5496 -5455 0
-5497 5496 0
-5497 -5455 0
5497 -5496 5455 0
5497 -5456 0
-5498 5497 0
-5498 -5456 0
5498 -5497 5456 0
5498 -5457 0
-5499 5498 0
-5499 -5457 0
5499 -5498 5457 0
5499 -5458 0
-5500 5499 0
-5500 -5458 0
5500 -5499 5458 0
5500 -5459 0
-5501 5500 0
-5501 -5459 0
5501 -5500 5459 0
5501 -5460 0
-5502 5501 0
-5502 -5460 0
5502 -5501 5460 0
5502 -5461 0
-5503 5502 0
-5503 -5461 0
5503 -5502 5461 0
-5504 59 0
-5504 54 0
5504 -59 -54 0
-5505 60 0
-5505 55 0
5505 -60 -55 0
-5506 61 0
-5506 56 0
5506 -61 -56 0
-5507 62 0
-5507 57 0
5507 -62 -57 0
-5508 63 0
-5508 58 0
5508 -63 -58 0
-5509 64 0
-5509 80 0
5509 -64 -80 0
-5510 65 0
-5510 81 0
5510 -65 -81 0
-5511 66 0
-5511 82 0
5511 -66 -82 0
-5512 67 0
-5512 83 0
5512 -67 -83 0
-5513 68 0
-5513 84 0
5513 -68 -84 0
-5514 69 0
-5514 64 0
5514 -69 -64 0
-5515 70 0
-5515 65 0
5515 -70 -65 0
-5516 71 0
-5516 66 0
5516 -71 -66 0
-5517 72 0
-5517 67 0
5517 -72 -67 0
-5518 73 0
-5518 68 0
5518 -73 -68 0
-5519 74 0
-5519 69 0
5519 -74 -69 0
-5520 75 0
-5520 70 0
5520 -75 -70 0
-5521 76 0
-5521 71 0
5521 -76 -71 0
-5522 77 0
-5522 72 0
5522 -77 -72 0
-5523 78 0
-5523 73 0
5523 -78 -73 0
-5524 79 0
-5524 74 0
5524 -79 -74 0
-5525 80 0
-5525 75 0
5525 -80 -75 0
-5526 81 0
-5526 76 0
5526 -81 -76 0
-5527 82 0
-5527 77 0
5527 -82 -77 0
-5528 83 0
-5528 78 0
5528 -83 -78 0
-5529 84 0
-5529 79 0
5529 -84 -79 0
-5365 0
-5223 0
-5504 0
-5505 0
-5506 0
-5507 0
-5508 0
-5440 0
-5300 0
1 -471 0
-471 -470 0
-5530 -471 0
-5530 -470 0
5530 471 470 0
5530 -469 0
-5531 5530 0
-5531 -469 0
5531 -5530 469 0
5531 -468 0
-5532 5531 0
-5532 -468 0
5532 -5531 468 0
5532 -467 0
-5533 5532 0
-5533 -467 0
5533 -5532 467 0
5533 -466 0
-5534 5533 0
-5534 -466 0
5534 -5533 466 0
5534 -486 0
-5535 5534 0
-5535 -486 0
5535 -5534 486 0
5535 -485 0
-5536 5535 0
-5536 -485 0
5536 -5535 485 0
5536 -484 0
-5537 5536 0
-5537 -484 0
5537 -5536 484 0
5537 -483 0
-5538 5537 0
-5538 -483 0
5538 -5537 483 0
5538 -482 0
-5539 5538 0
-5539 -482 0
5539 -5538 482 0
5539 -481 0
-5540 5539 0
-5540 -481 0
5540 -5539 481 0
5540 -480 0
-5541 5540 0
-5541 -480 0
5541 -5540 480 0
5541 -479 0
-5542 5541 0
-5542 -479 0
5542 -5541 479 0
5542 -478 0
-5543 5542 0
-5543 -478 0
5543 -5542 478 0
5543 -477 0
-5544 5543 0
-5544 -477 0
5544 -5543 477 0
5544 -476 0
-5545 5544 0
-5545 -476 0
5545 -5544 476 0
5545 -475 0
-5546 5545 0
-5546 -475 0
5546 -5545 475 0
5546 -474 0
-5547 5546 0
-5547 -474 0
5547 -5546 474 0
5547 -473 0
-5548 5547 0
-5548 -473 0
5548 -5547 473 0
5548 -472 0
-5549 5548 0
-5549 -472 0
5549 -5548 472 0
5549 -61 0
-5550 5549 0
-5550 -61 0
5550 -5549 61 0
5550 -5509 0
-5551 5550 0
-5551 -5509 0
5551 -5550 5509 0
5551 -5510 0
-5552 5551 0
-5552 -5510 0
5552 -5551 5510 0
5552 -5511 0
-5553 5552 0
-5553 -5511 0
5553 -5552 5511 0
5553 -5512 0
-5554 5553 0
-5554 -5512 0
5554 -5553 5512 0
5554 -5513 0
-5555 5554 0
-5555 -5513 0
5555 -5554 5513 0
5555 -5514 0
-5556 5555 0
-5556 -5514 0
5556 -5555 5514 0
5556 -5515 0
-5557 5556 0
-5557 -5515 0
5557 -5556 5515 0
5557 -5516 0
-5558 5557 0
-5558 -5516 0
5558 -5557 5516 0
5558 -5517 0
-5559 5558 0
-5559 -5517 0
5559 -5558 5517 0
5559 -5518 0
-5560 5559 0
-5560 -5518 0
5560 -5559 5518 0
5560 -5519 0
-5561 5560 0
-5561 -5519 0
5561 -5560 5519 0
5561 -5520 0
-5562 5561 0
-5562 -5520 0
5562 -5561 5520 0
5562 -5521 0
-5563 5562 0
-5563 -5521 0
5563 -5562 5521 0
5563 -5522 0
-5564 5563 0
-5564 -5522 0
5564 -5563 5522 0
5564 -5523 0
-5565 5564 0
-5565 -5523 0
5565 -5564 5523 0
5565 -5524 0
-5566 5565 0
-5566 -5524 0
5566 -5565 5524 0
5566 -5525 0
-5567 5566 0
-5567 -5525 0
5567 -5566 5525 0
5567 -5526 0
-5568 5567 0
-5568 -5526 0
5568 -5567 5526 0
5568 -5527 0
-5569 5568 0
-5569 -5527 0
5569 -5568 5527 0
5569 -5528 0
-5570 5569 0
-5570 -5528 0
5570 -5569 5528 0
5570 -5529 0
-5571 5570 0
-5571 -5529 0
5571 -5570 5529 0
-5572 60 0
-5572 54 0
5572 -60 -54 0
-5573 61 0
-5573 55 0
5573 -61 -55 0
-5574 62 0
-5574 56 0
5574 -62 -56 0
-5575 63 0
-5575 57 0
5575 -63 -57 0
-5576 64 0
-5576 79 0
5576 -64 -79 0
-5577 65 0
-5577 80 0
5577 -65 -80 0
-5578 66 0
-5578 81 0
5578 -66 -81 0
-5579 67 0
-5579 82 0
5579 -67 -82 0
-5580 68 0
-5580 83 0
5580 -68 -83 0
-5581 69 0
-5581 84 0
5581 -69 -84 0
-5582 70 0
-5582 64 0
5582 -70 -64 0
-5583 71 0
-5583 65 0
5583 -71 -65 0
-5584 72 0
-5584 66 0
5584 -72 -66 0
-5585 73 0
-5585 67 0
5585 -73 -67 0
-5586 74 0
-5586 68 0
5586 -74 -68 0
-5587 75 0
-5587 69 0
5587 -75 -69 0
-5588 76 0
-5588 70 0
5588 -76 -70 0
-5589 77 0
-5589 71 0
5589 -77 -71 0
-5590 78 0
-5590 72 0
5590 -78 -72 0
-5591 79 0
-5591 73 0
5591 -79 -73 0
-5592 80 0
-5592 74 0
5592 -80 -74 0
-5593 81 0
-5593 75 0
5593 -81 -75 0
-5594 82 0
-5594 76 0
5594 -82 -76 0
-5595 83 0
-5595 77 0
5595 -83 -77 0
-5596 84 0
-5596 78 0
5596 -84 -78 0
-5435 0
-5295 0
-5572 0
-5573 0
-5574 0
-5575 0
-5508 0
-5370 0
-5228 0
1 -560 0
-560 -559 0
-5597 -560 0
-5597 -559 0
5597 560 559 0
5597 -558 0
-5598 5597 0
-5598 -558 0
5598 -5597 558 0
5598 -557 0
-5599 5598 0
-5599 -557 0
5599 -5598 557 0
5599 -556 0
-5600 5599 0
-5600 -556 0
5600 -5599 556 0
5600 -555 0
-5601 5600 0
-5601 -555 0
5601 -5600 555 0
5601 -554 0
-5602 5601 0
-5602 -554 0
5602 -5601 554 0
5602 -574 0
-5603 5602 0
-5603 -574 0
5603 -5602 574 0
5603 -573 0
-5604 5603 0
-5604 -573 0
5604 -5603 573 0
5604 -572 0
-5605 5604 0
-5605 -572 0
5605 -5604 572 0
5605 -571 0
-5606 5605 0
-5606 -571 0
5606 -5605 571 0
5606 -570 0
-5607 5606 0
-5607 -570 0
5607 -5606 570 0
5607 -569 0
-5608 5607 0
-5608 -569 0
5608 -5607 569 0
5608 -568 0
-5609 5608 0
-5609 -568 0
5609 -5608 568 0
5609 -567 0
-5610 5609 0
-5610 -567 0
5610 -5609 567 0
5610 -566 0
-5611 5610 0
-5611 -566 0
5611 -5610 566 0
5611 -565 0
-5612 5611 0
-5612 -565 0
5612 -5611 565 0
5612 -564 0
-5613 5612 0
-5613 -564 0
5613 -5612 564 0
5613 -563 0
-5614 5613 0
-5614 -563 0
5614 -5613 563 0
5614 -562 0
-5615 5614 0
-5615 -562 0
5615 -5614 562 0
5615 -561 0
-5616 5615 0
-5616 -561 0
5616 -5615 561 0
5616 -56 0
-5617 5616 0
-5617 -56 0
5617 -5616 56 0
5617 -5576 0
-5618 5617 0
-5618 -5576 0
5618 -5617 5576 0
5618 -5577 0
-5619 5618 0
-5619 -5577 0
5619 -5618 5577 0
5619 -5578 0
-5620 5619 0
-5620 -5578 0
5620 -5619 5578 0
5620 -5579 0
-5621 5620 0
-5621 -5579 0
5621 -5620 5579 0
5621 -5580 0
-5622 5621 0
-5622 -5580 0
5622 -5621 5580 0
5622 -5581 0
-5623 5622 0
-5623 -5581 0
5623 -5622 5581 0
5623 -5582 0
-5624 5623 0
-5624 -5582 0
5624 -5623 5582 0
5624 -5583 0
-5625 5624 0
-5625 -5583 0
5625 -5624 5583 0
5625 -5584 0
-5626 5625 0
-5626 -5584 0
5626 -5625 5584 0
5626 -5585 0
-5627 5626 0
-5627 -5585 0
5627 -5626 5585 0
5627 -5586 0
-5628 5627 0
-5628 -5586 0
5628 -5627 5586 0
5628 -5587 0
-5629 5628 0
-5629 -5587 0
5629 -5628 5587 0
5629 -5588 0
-5630 5629 0
-5630 -5588 0
5630 -5629 5588 0
5630 -5589 0
-5631 5630 0
-5631 -5589 0
5631 -5630 5589 0
5631 -5590 0
-5632 5631 0
-5632 -5590 0
5632 -5631 5590 0
5632 -5591 0
-5633 5632 0
-5633 -5591 0
5633 -5632 5591 0
5633 -5592 0
-5634 5633 0
-5634 -5592 0
5634 -5633 5592 0
5634 -5593 0
-5635 5634 0
-5635 -5593 0
5635 -5634 5593 0
5635 -5594 0
-5636 5635 0
-5636 -5594 0
5636 -5635 5594 0
5636 -5595 0
-5637 5636 0
-5637 -5595 0
5637 -5636 5595 0
5637 -5596 0
-5638 5637 0
-5638 -5596 0
5638 -5637 5596 0
-5639 61 0
-5639 54 0
5639 -61 -54 0
-5640 62 0
-5640 55 0
5640 -62 -55 0
-5641 63 0
-5641 56 0
5641 -63 -56 0
-5642 64 0
-5642 78 0
5642 -64 -78 0
-5643 65 0
-5643 79 0
5643 -65 -79 0
-5644 66 0
-5644 80 0
5644 -66 -80 0
-5645 67 0
-5645 81 0
5645 -67 -81 0
-5646 68 0
-5646 82 0
5646 -68 -82 0
-5647 69 0
-5647 83 0
5647 -69 -83 0
-5648 70 0
-5648 84 0
5648 -70 -84 0
-5649 71 0
-5649 64 0
5649 -71 -64 0
-5650 72 0
-5650 65 0
5650 -72 -65 0
-5651 73 0
-5651 66 0
5651 -73 -66 0
-5652 74 0
-5652 67 0
5652 -74 -67 0
-5653 75 0
-5653 68 0
5653 -75 -68 0
-5654 76 0
-5654 69 0
5654 -76 -69 0
-5655 77 0
-5655 70 0
5655 -77 -70 0
-5656 78 0
-5656 71 0
5656 -78 -71 0
-5657 79 0
-5657 72 0
5657 -79 -72 0
-5658 80 0
-5658 73 0
5658 -80 -73 0
-5659 81 0
-5659 74 0
5659 -81 -74 0
-5660 82 0
-5660 75 0
5660 -82 -75 0
-5661 83 0
-5661 76 0
5661 -83 -76 0
-5662 84 0
-5662 77 0
5662 -84 -77 0
-5504 0
-5366 0
-5224 0
-5639 0
-5640 0
-5641 0
-5575 0
-5439 0
-5299 0
1 -648 0
-648 -647 0
-5663 -648 0
-5663 -647 0
5663 648 647 0
5663 -646 0
-5664 5663 0
-5664 -646 0
5664 -5663 646 0
5664 -645 0
-5665 5664 0
-5665 -645 0
5665 -5664 645 0
5665 -644 0
-5666 5665 0
-5666 -644 0
5666 -5665 644 0
5666 -643 0
-5667 5666 0
-5667 -643 0
5667 -5666 643 0
5667 -642 0
-5668 5667 0
-5668 -642 0
5668 -5667 642 0
5668 -641 0
-5669 5668 0
-5669 -641 0
5669 -5668 641 0
5669 -661 0
-5670 5669 0
-5670 -661 0
5670 -5669 661 0
5670 -660 0
-5671 5670 0
-5671 -660 0
5671 -5670 660 0
5671 -659 0
-5672 5671 0
-5672 -659 0
5672 -5671 659 0
5672 -658 0
-5673 5672 0
-5673 -658 0
5673 -5672 658 0
5673 -657 0
-5674 5673 0
-5674 -657 0
5674 -5673 657 0
5674 -656 0
-5675 5674 0
-5675 -656 0
5675 -5674 656 0
5675 -655 0
-5676 5675 0
-5676 -655 0
5676 -5675 655 0
5676 -654 0
-5677 5676 0
-5677 -654 0
5677 -5676 654 0
5677 -653 0
-5678 5677 0
-5678 -653 0
5678 -5677 653 0
5678 -652 0
-5679 5678 0
-5679 -652 0
5679 -5678 652 0
5679 -651 0
-5680 5679 0
-5680 -651 0
5680 -5679 651 0
5680 -650 0
-5681 5680 0
-5681 -650 0
5681 -5680 650 0
5681 -649 0
-5682 5681 0
-5682 -649 0
5682 -5681 649 0
5682 -60 0
-5683 5682 0
-5683 -60 0
5683 -5682 60 0
5683 -5642 0
-5684 5683 0
-5684 -5642 0
5684 -5683 5642 0
5684 -5643 0
-5685 5684 0
-5685 -5643 0
5685 -5684 5643 0
5685 -5644 0
-5686 5685 0
-5686 -5644 0
5686 -5685 5644 0
5686 -5645 0
-5687 5686 0
-5687 -5645 0
5687 -5686 5645 0
5687 -5646 0
-5688 5687 0
-5688 -5646 0
5688 -5687 5646 0
5688 -5647 0
-5689 5688 0
-5689 -5647 0
5689 -5688 5647 0
5689 -5648 0
-5690 5689 0
-5690 -5648 0
5690 -5689 5648 0
5690 -5649 0
-5691 5690 0
-5691 -5649 0
5691 -5690 5649 0
5691 -5650 0
-5692 5691 0
-5692 -5650 0
5692 -5691 5650 0
5692 -5651 0
-5693 5692 0
-5693 -5651 0
5693 -5692 5651 0
5693 -5652 0
-5694 5693 0
-5694 -5652 0
5694 -5693 5652 0
5694 -5653 0
-5695 5694 0
-5695 -5653 0
5695 -5694 5653 0
5695 -5654 0
-5696 5695 0
-5696 -5654 0
5696 -5695 5654 0
5696 -5655 0
-5697 5696 0
-5697 -5655 0
5697 -5696 5655 0
5697 -5656 0
-5698 5697 0
-5698 -5656 0
5698 -5697 5656 0
5698 -5657 0
-5699 5698 0
-5699 -5657 0
5699 -5698 5657 0
5699 -5658 0
-5700 5699 0
-5700 -5658 0
5700 -5699 5658 0
5700 -5659 0
-5701 5700 0
-5701 -5659 0
5701 -5700 5659 0
5701 -5660 0
-5702 5701 0
-5702 -5660 0
5702 -5701 5660 0
5702 -5661 0
-5703 5702 0
-5703 -5661 0
5703 -5702 5661 0
5703 -5662 0
-5704 5703 0
-5704 -5662 0
5704 -5703 5662 0
-5705 62 0
-5705 54 0
5705 -62 -54 0
-5706 63 0
-5706 55 0
5706 -63 -55 0
-5707 64 0
-5707 77 0
5707 -64 -77 0
-5708 65 0
-5708 78 0
5708 -65 -78 0
-5709 66 0
-5709 79 0
5709 -66 -79 0
-5710 67 0
-5710 80 0
5710 -67 -80 0
-5711 68 0
-5711 81 0
5711 -68 -81 0
-5712 69 0
-5712 82 0
5712 -69 -82 0
-5713 70 0
-5713 83 0
5713 -70 -83 0
-5714 71 0
-5714 84 0
5714 -71 -84 0
-5715 72 0
-5715 64 0
5715 -72 -64 0
-5716 73 0
-5716 65 0
5716 -73 -65 0
-5717 74 0
-5717 66 0
5717 -74 -66 0
-5718 75 0
-5718 67 0
5718 -75 -67 0
-5719 76 0
-5719 68 0
5719 -76 -68 0
-5720 77 0
-5720 69 0
5720 -77 -69 0
-5721 78 0
-5721 70 0
5721 -78 -70 0
-5722 79 0
-5722 71 0
5722 -79 -71 0
-5723 80 0
-5723 72 0
5723 -80 -72 0
-5724 81 0
-5724 73 0
5724 -81 -73 0
-5725 82 0
-5725 74 0
5725 -82 -74 0
-5726 83 0
-5726 75 0
5726 -83 -75 0
-5727 84 0
-5727 76 0
5727 -84 -76 0
-5572 0
-5436 0
-5296 0
-5705 0
-5706 0
-5641 0
-5507 0
-5369 0
-5227 0
1 -735 0
-735 -734 0
-5728 -735 0
-5728 -734 0
5728 735 734 0
5728 -733 0
-5729 5728 0
-5729 -733 0
5729 -5728 733 0
5729 -732 0
-5730 5729 0
-5730 -732 0
5730 -5729 732 0
5730 -731 0
-5731 5730 0
-5731 -731 0
5731 -5730 731 0
5731 -730 0
-5732 5731 0
-5732 -730 0
5732 -5731 730 0
5732 -729 0
-5733 5732 0
-5733 -729 0
5733 -5732 729 0
5733 -728 0
-5734 5733 0
-5734 -728 0
5734 -5733 728 0
5734 -727 0
-5735 5734 0
-5735 -727 0
5735 -5734 727 0
5735 -747 0
-5736 5735 0
-5736 -747 0
5736 -5735 747 0
5736 -746 0
-5737 5736 0
-5737 -746 0
5737 -5736 746 0
5737 -745 0
-5738 5737 0
-5738 -745 0
5738 -5737 745 0
5738 -744 0
-5739 5738 0
-5739 -744 0
5739 -5738 744 0
5739 -743 0
-5740 5739 0
-5740 -743 0
5740 -5739 743 0
5740 -742 0
-5741 5740 0
-5741 -742 0
5741 -5740 742 0
5741 -741 0
-5742 5741 0
-5742 -741 0
5742 -5741 741 0
5742 -740 0
-5743 5742 0
-5743 -740 0
5743 -5742 740 0
5743 -739 0
-5744 5743 0
-5744 -739 0
5744 -5743 739 0
5744 -738 0
-5745 5744 0
-5745 -738 0
5745 -5744 738 0
5745 -737 0
-5746 5745 0
-5746 -737 0
5746 -5745 737 0
5746 -736 0
-5747 5746 0
-5747 -736 0
5747 -5746 736 0
5747 -57 0
-5748 5747 0
-5748 -57 0
5748 -5747 57 0
5748 -5707 0
-5749 5748 0
-5749 -5707 0
5749 -5748 5707 0
5749 -5708 0
-5750 5749 0
-5750 -5708 0
5750 -5749 5708 0
5750 -5709 0
-5751 5750 0
-5751 -5709 0
5751 -5750 5709 0
5751 -5710 0
-5752 5751 0
-5752 -5710 0
5752 -5751 5710 0
5752 -5711 0
-5753 5752 0
-5753 -5711 0
5753 -5752 5711 0
5753 -5712 0
-5754 5753 0
-5754 -5712 0
5754 -5753 5712 0
5754 -5713 0
-5755 5754 0
-5755 -5713 0
5755 -5754 5713 0
5755 -5714 0
-5756 5755 0
-5756 -5714 0
5756 -5755 5714 0
5756 -5715 0
-5757 5756 0
-5757 -5715 0
5757 -5756 5715 0
5757 -5716 0
-5758 5757 0
-5758 -5716 0
5758 -5757 5716 0
5758 -5717 0
-5759 5758 0
-5759 -5717 0
5759 -5758 5717 0
5759 -5718 0
-5760 5759 0
-5760 -5718 0
5760 -5759 5718 0
5760 -5719 0
-5761 5760 0
-5761 -5719 0
5761 -5760 5719 0
5761 -5720 0
-5762 5761 0
-5762 -5720 0
5762 -5761 5720 0
5762 -5721 0
-5763 5762 0
-5763 -5721 0
5763 -5762 5721 0
5763 -5722 0
-5764 5763 0
-5764 -5722 0
5764 -5763 5722 0
5764 -5723 0
-5765 5764 0
-5765 -5723 0
5765 -5764 5723 0
5765 -5724 0
-5766 5765 0
-5766 -5724 0
5766 -5765 5724 0
5766 -5725 0
-5767 5766 0
-5767 -5725 0
5767 -5766 5725 0
5767 -5726 0
-5768 5767 0
-5768 -5726 0
5768 -5767 5726 0
5768 -5727 0
-5769 5768 0
-5769 -5727 0
5769 -5768 5727 0
-5770 63 0
-5770 54 0
5770 -63 -54 0
-5771 64 0
-5771 76 0
5771 -64 -76 0
-5772 65 0
-5772 77 0
5772 -65 -77 0
-5773 66 0
-5773 78 0
5773 -66 -78 0
-5774 67 0
-5774 79 0
5774 -67 -79 0
-5775 68 0
-5775 80 0
5775 -68 -80 0
-5776 69 0
-5776 81 0
5776 -69 -81 0
-5777 70 0
-5777 82 0
5777 -70 -82 0
-5778 71 0
-5778 83 0
5778 -71 -83 0
-5779 72 0
-5779 84 0
5779 -72 -84 0
-5780 73 0
-5780 64 0
5780 -73 -64 0
-5781 74 0
-5781 65 0
5781 -74 -65 0
-5782 75 0
-5782 66 0
5782 -75 -66 0
-5783 76 0
-5783 67 0
5783 -76 -67 0
-5784 77 0
-5784 68 0
5784 -77 -68 0
-5785 78 0
-5785 69 0
5785 -78 -69 0
-5786 79 0
-5786 70 0
5786 -79 -70 0
-5787 80 0
-5787 71 0
5787 -80 -71 0
-5788 81 0
-5788 72 0
5788 -81 -72 0
-5789 82 0
-5789 73 0
5789 -82 -73 0
-5790 83 0
-5790 74 0
5790 -83 -74 0
-5791 84 0
-5791 75 0
5791 -84 -75 0
-5639 0
-5505 0
-5367 0
-5225 0
-5770 0
-5706 0
-5574 0
-5438 0
-5298 0
1 -821 0
-821 -820 0
-5792 -821 0
-5792 -820 0
5792 821 820 0
5792 -819 0
-5793 5792 0
-5793 -819 0
5793 -5792 819 0
5793 -818 0
-5794 5793 0
-5794 -818 0
5794 -5793 818 0
5794 -817 0
-5795 5794 0
-5795 -817 0
5795 -5794 817 0
5795 -816 0
-5796 5795 0
-5796 -816 0
5796 -5795 816 0
5796 -815 0
-5797 5796 0
-5797 -815 0
5797 -5796 815 0
5797 -814 0
-5798 5797 0
-5798 -814 0
5798 -5797 814 0
5798 -813 0
-5799 5798 0
-5799 -813 0
5799 -5798 813 0
5799 -812 0
-5800 5799 0
-5800 -812 0
5800 -5799 812 0
5800 -832 0
-5801 5800 0
-5801 -832 0
5801 -5800 832 0
5801 -831 0
-5802 5801 0
-5802 -831 0
5802 -5801 831 0
5802 -830 0
-5803 5802 0
-5803 -830 0
5803 -5802 830 0
5803 -829 0
-5804 5803 0
-5804 -829 0
5804 -5803 829 0
5804 -828 0
-5805 5804 0
-5805 -828 0
5805 -5804 828 0
5805 -827 0
-5806 5805 0
-5806 -827 0
5806 -5805 827 0
5806 -826 0
-5807 5806 0
-5807 -826 0
5807 -5806 826 0
5807 -825 0
-5808 5807 0
-5808 -825 0
5808 -5807 825 0
5808 -824 0
-5809 5808 0
-5809 -824 0
5809 -5808 824 0
5809 -823 0
-5810 5809 0
-5810 -823 0
5810 -5809 823 0
5810 -822 0
-5811 5810 0
-5811 -822 0
5811 -5810 822 0
5811 -59 0
-5812 5811 0
-5812 -59 0
5812 -5811 59 0
5812 -5771 0
-5813 5812 0
-5813 -5771 0
5813 -5812 5771 0
5813 -5772 0
-5814 5813 0
-5814 -5772 0
5814 -5813 5772 0
5814 -5773 0
-5815 5814 0
-5815 -5773 0
5815 -5814 5773 0
5815 -5774 0
-5816 5815 0
-5816 -5774 0
5816 -5815 5774 0
5816 -5775 0
-5817 5816 0
-5817 -5775 0
5817 -5816 5775 0
5817 -5776 0
-5818 5817 0
-5818 -5776 0
5818 -5817 5776 0
5818 -5777 0
-5819 5818 0
-5819 -5777 0
5819 -5818 5777 0
5819 -5778 0
-5820 5819 0
-5820 -5778 0
5820 -5819 5778 0
5820 -5779 0
-5821 5820 0
-5821 -5779 0
5821 -5820 5779 0
5821 -5780 0
-5822 5821 0
-5822 -5780 0
5822 -5821 5780 0
5822 -5781 0
-5823 5822 0
-5823 -5781 0
5823 -5822 5781 0
5823 -5782 0
-5824 5823 0
-5824 -5782 0
5824 -5823 5782 0
5824 -5783 0
-5825 5824 0
-5825 -5783 0
5825 -5824 5783 0
5825 -5784 0
-5826 5825 0
-5826 -5784 0
5826 -5825 5784 0
5826 -5785 0
-5827 5826 0
-5827 -5785 0
5827 -5826 5785 0
5827 -5786 0
-5828 5827 0
-5828 -5786 0
5828 -5827 5786 0
5828 -5787 0
-5829 5828 0
-5829 -5787 0
5829 -5828 5787 0
5829 -5788 0
-5830 5829 0
-5830 -5788 0
5830 -5829 5788 0
5830 -5789 0
-5831 5830 0
-5831 -5789 0
5831 -5830 5789 0
5831 -5790 0
-5832 5831 0
-5832 -5790 0
5832 -5831 5790 0
5832 -5791 0
-5833 5832 0
-5833 -5791 0
5833 -5832 5791 0
-5834 64 0
-5834 75 0
5834 -64 -75 0
-5835 65 0
-5835 76 0
5835 -65 -76 0
-5836 66 0
-5836 77 0
5836 -66 -77 0
-5837 67 0
-5837 78 0
5837 -67 -78 0
-5838 68 0
-5838 79 0
5838 -68 -79 0
-5839 69 0
-5839 80 0
5839 -69 -80 0
-5840 70 0
-5840 81 0
5840 -70 -81 0
-5841 71 0
-5841 82 0
5841 -71 -82 0
-5842 72 0
-5842 83 0
5842 -72 -83 0
-5843 73 0
-5843 84 0
5843 -73 -84 0
-5844 74 0
-5844 64 0
5844 -74 -64 0
-5845 75 0
-5845 65 0
5845 -75 -65 0
-5846 76 0
-5846 66 0
5846 -76 -66 0
-5847 77 0
-5847 67 0
5847 -77 -67 0
-5848 78 0
-5848 68 0
5848 -78 -68 0
-5849 79 0
-5849 69 0
5849 -79 -69 0
-5850 80 0
-5850 70 0
5850 -80 -70 0
-5851 81 0
-5851 71 0
5851 -81 -71 0
-5852 82 0
-5852 72 0
5852 -82 -72 0
-5853 83 0
-5853 73 0
5853 -83 -73 0
-5854 84 0
-5854 74 0
5854 -84 -74 0
-5705 0
-5573 0
-5437 0
-5297 0
-5770 0
-5640 0
-5506 0
-5368 0
-5226 0
1 -906 0
-906 -905 0
-5855 -906 0
-5855 -905 0
5855 906 905 0
5855 -904 0
-5856 5855 0
-5856 -904 0
5856 -5855 904 0
5856 -903 0
-5857 5856 0
-5857 -903 0
5857 -5856 903 0
5857 -902 0
-5858 5857 0
-5858 -902 0
5858 -5857 902 0
5858 -901 0
-5859 5858 0
-5859 -901 0
5859 -5858 901 0
5859 -900 0
-5860 5859 0
-5860 -900 0
5860 -5859 900 0
5860 -899 0
-5861 5860 0
-5861 -899 0
5861 -5860 899 0
5861 -898 0
-5862 5861 0
-5862 -898 0
5862 -5861 898 0
5862 -897 0
-5863 5862 0
-5863 -897 0
5863 -5862 897 0
5863 -896 0
-5864 5863 0
-5864 -896 0
5864 -5863 896 0
5864 -916 0
-5865 5864 0
-5865 -916 0
5865 -5864 916 0
5865 -915 0
-5866 5865 0
-5866 -915 0
5866 -5865 915 0
5866 -914 0
-5867 5866 0
-5867 -914 0
5867 -5866 914 0
5867 -913 0
-5868 5867 0
-5868 -913 0
5868 -5867 913 0
5868 -912 0
-5869 5868 0
-5869 -912 0
5869 -5868 912 0
5869 -911 0
-5870 5869 0
-5870 -911 0
5870 -5869 911 0
5870 -910 0
-5871 5870 0
-5871 -910 0
5871 -5870 910 0
5871 -909 0
-5872 5871 0
-5872 -909 0
5872 -5871 909 0
5872 -908 0
-5873 5872 0
-5873 -908 0
5873 -5872 908 0
5873 -907 0
-5874 5873 0
-5874 -907 0
5874 -5873 907 0
5874 -58 0
-5875 5874 0
-5875 -58 0
5875 -5874 58 0
5875 -5834 0
-5876 5875 0
-5876 -5834 0
5876 -5875 5834 0
5876 -5835 0
-5877 5876 0
-5877 -5835 0
5877 -5876 5835 0
5877 -5836 0
-5878 5877 0
-5878 -5836 0
5878 -5877 5836 0
5878 -5837 0
-5879 5878 0
-5879 -5837 0
5879 -5878 5837 0
5879 -5838 0
-5880 5879 0
-5880 -5838 0
5880 -5879 5838 0
5880 -5839 0
-5881 5880 0
-5881 -5839 0
5881 -5880 5839 0
5881 -5840 0
-5882 5881 0
-5882 -5840 0
5882 -5881 5840 0
5882 -5841 0
-5883 5882 0
-5883 -5841 0
5883 -5882 5841 0
5883 -5842 0
-5884 5883 0
-5884 -5842 0
5884 -5883 5842 0
5884 -5843 0
-5885 5884 0
-5885 -5843 0
5885 -5884 5843 0
5885 -5844 0
-5886 5885 0
-5886 -5844 0
5886 -5885 5844 0
5886 -5845 0
-5887 5886 0
-5887 -5845 0
5887 -5886 5845 0
5887 -5846 0
-5888 5887 0
-5888 -5846 0
5888 -5887 5846 0
5888 -5847 0
-5889 5888 0
-5889 -5847 0
5889 -5888 5847 0
5889 -5848 0
-5890 5889 0
-5890 -5848 0
5890 -5889 5848 0
5890 -5849 0
-5891 5890 0
-5891 -5849 0
5891 -5890 5849 0
5891 -5850 0
-5892 5891 0
-5892 -5850 0
5892 -5891 5850 0
5892 -5851 0
-5893 5892 0
-5893 -5851 0
5893 -5892 5851 0
5893 -5852 0
-5894 5893 0
-5894 -5852 0
5894 -5893 5852 0
5894 -5853 0
-5895 5894 0
-5895 -5853 0
5895 -5894 5853 0
5895 -5854 0
-5896 5895 0
-5896 -5854 0
5896 -5895 5854 0
-5897 12 0
-5897 33 0
5897 -12 -33 0
-5898 32 0
-5898 53 0
5898 -32 -53 0
-5899 31 0
-5899 52 0
5899 -31 -52 0
-5900 30 0
-5900 51 0
5900 -30 -51 0
-5901 29 0
-5901 50 0
5901 -29 -50 0
-5902 28 0
-5902 49 0
5902 -28 -49 0
-5903 27 0
-5903 48 0
5903 -27 -48 0
-5904 26 0
-5904 47 0
5904 -26 -47 0
-5905 25 0
-5905 46 0
5905 -25 -46 0
-5906 24 0
-5906 45 0
5906 -24 -45 0
-5907 23 0
-5907 44 0
5907 -23 -44 0
-5908 22 0
-5908 43 0
5908 -22 -43 0
-5909 21 0
-5909 42 0
5909 -21 -42 0
-5910 20 0
-5910 41 0
5910 -20 -41 0
-5911 19 0
-5911 40 0
5911 -19 -40 0
-5912 18 0
-5912 39 0
5912 -18 -39 0
-5913 17 0
-5913 38 0
5913 -17 -38 0
-5914 16 0
-5914 37 0
5914 -16 -37 0
-5915 15 0
-5915 36 0
5915 -15 -36 0
-5916 14 0
-5916 35 0
5916 -14 -35 0
-5917 13 0
-5917 34 0
5917 -13 -34 0
-5918 54 0
-5918 84 0
5918 -54 -84 0
-5919 55 0
-5919 83 0
5919 -55 -83 0
-5920 56 0
-5920 82 0
5920 -56 -82 0
-5921 57 0
-5921 81 0
5921 -57 -81 0
-5922 58 0
-5922 80 0
5922 -58 -80 0
-5923 59 0
-5923 79 0
5923 -59 -79 0
-5924 60 0
-5924 78 0
5924 -60 -78 0
-5925 61 0
-5925 77 0
5925 -61 -77 0
-5926 62 0
-5926 76 0
5926 -62 -76 0
-5927 63 0
-5927 75 0
5927 -63 -75 0
-5928 63 0
-5928 74 0
5928 -63 -74 0
-5929 62 0
-5929 73 0
5929 -62 -73 0
-5930 61 0
-5930 72 0
5930 -61 -72 0
-5931 60 0
-5931 71 0
5931 -60 -71 0
-5932 59 0
-5932 70 0
5932 -59 -70 0
-5933 58 0
-5933 69 0
5933 -58 -69 0
-5934 57 0
-5934 68 0
5934 -57 -68 0
-5935 56 0
-5935 67 0
5935 -56 -67 0
-5936 55 0
-5936 66 0
5936 -55 -66 0
-5937 54 0
-5937 65 0
5937 -54 -65 0
-5938 65 0
-5938 85 0
5938 -65 -85 0
-5939 66 0
-5939 86 0
5939 -66 -86 0
-5940 67 0
-5940 87 0
5940 -67 -87 0
-5941 68 0
-5941 88 0
5941 -68 -88 0
-5942 69 0
-5942 89 0
5942 -69 -89 0
-5943 70 0
-5943 90 0
5943 -70 -90 0
-5944 71 0
-5944 91 0
5944 -71 -91 0
-5945 72 0
-5945 92 0
5945 -72 -92 0
-5946 73 0
-5946 93 0
5946 -73 -93 0
-5947 74 0
-5947 94 0
5947 -74 -94 0
-5948 75 0
-5948 94 0
5948 -75 -94 0
-5949 76 0
-5949 93 0
5949 -76 -93 0
-5950 77 0
-5950 92 0
5950 -77 -92 0
-5951 78 0
-5951 91 0
5951 -78 -91 0
-5952 79 0
-5952 90 0
5952 -79 -90 0
-5953 80 0
-5953 89 0
5953 -80 -89 0
-5954 81 0
-5954 88 0
5954 -81 -88 0
-5955 82 0
-5955 87 0
5955 -82 -87 0
-5956 83 0
-5956 86 0
5956 -83 -86 0
-5957 84 0
-5957 85 0
5957 -84 -85 0
1 -5897 0
-5897 -5898 0
-5958 -5897 0
-5958 -5898 0
5958 5897 5898 0
5958 -5899 0
-5959 5958 0
-5959 -5899 0
5959 -5958 5899 0
5959 -5900 0
-5960 5959 0
-5960 -5900 0
5960 -5959 5900 0
5960 -5901 0
-5961 5960 0
-5961 -5901 0
5961 -5960 5901 0
5961 -5902 0
-5962 5961 0
-5962 -5902 0
5962 -5961 5902 0
5962 -5903 0
-5963 5962 0
-5963 -5903 0
5963 -5962 5903 0
5963 -5904 0
-5964 5963 0
-5964 -5904 0
5964 -5963 5904 0
5964 -5905 0
-5965 5964 0
-5965 -5905 0
5965 -5964 5905 0
5965 -5906 0
-5966 5965 0
-5966 -5906 0
5966 -5965 5906 0
5966 -5907 0
-5967 5966 0
-5967 -5907 0
5967 -5966 5907 0
5967 -5908 0
-5968 5967 0
-5968 -5908 0
5968 -5967 5908 0
5968 -5909 0
-5969 5968 0
-5969 -5909 0
5969 -5968 5909 0
5969 -5910 0
-5970 5969 0
-5970 -5910 0
5970 -5969 5910 0
5970 -5911 0
-5971 5970 0
-5971 -5911 0
5971 -5970 5911 0
5971 -5912 0
-5972 5971 0
-5972 -5912 0
5972 -5971 5912 0
5972 -5913 0
-5973 5972 0
-5973 -5913 0
5973 -5972 5913 0
5973 -5914 0
-5974 5973 0
-5974 -5914 0
5974 -5973 5914 0
5974 -5915 0
-5975 5974 0
-5975 -5915 0
5975 -5974 5915 0
5975 -5916 0
-5976 5975 0
-5976 -5916 0
5976 -5975 5916 0
5976 -5917 0
-5977 5976 0
-5977 -5917 0
5977 -5976 5917 0
5977 -5918 0
-5978 5977 0
-5978 -5918 0
5978 -5977 5918 0
5978 -5919 0
-5979 5978 0
-5979 -5919 0
5979 -5978 5919 0
5979 -5920 0
-5980 5979 0
-5980 -5920 0
5980 -5979 5920 0
5980 -5921 0
-5981 5980 0
-5981 -5921 0
5981 -5980 5921 0
5981 -5922 0
-5982 5981 0
-5982 -5922 0
5982 -5981 5922 0
5982 -5923 0
-5983 5982 0
-5983 -5923 0
5983 -5982 5923 0
5983 -5924 0
-5984 5983 0
-5984 -5924 0
5984 -5983 5924 0
5984 -5925 0
-5985 5984 0
-5985 -5925 0
5985 -5984 5925 0
5985 -5926 0
-5986 5985 0
-5986 -5926 0
5986 -5985 5926 0
5986 -5927 0
-5987 5986 0
-5987 -5927 0
5987 -5986 5927 0
5987 -5928 0
-5988 5987 0
-5988 -5928 0
5988 -5987 5928 0
5988 -5929 0
-5989 5988 0
-5989 -5929 0
5989 -5988 5929 0
5989 -5930 0
-5990 5989 0
-5990 -5930 0
5990 -5989 5930 0
5990 -5931 0
-5991 5990 0
-5991 -5931 0
5991 -5990 5931 0
5991 -5932 0
-5992 5991 0
-5992 -5932 0
5992 -5991 5932 0
5992 -5933 0
-5993 5992 0
-5993 -5933 0
5993 -5992 5933 0
5993 -5934 0
-5994 5993 0
-5994 -5934 0
5994 -5993 5934 0
5994 -5935 0
-5995 5994 0
-5995 -5935 0
5995 -5994 5935 0
5995 -5936 0
-5996 5995 0
-5996 -5936 0
5996 -5995 5936 0
5996 -5937 0
-5997 5996 0
-5997 -5937 0
5997 -5996 5937 0
5997 -5938 0
-5998 5997 0
-5998 -5938 0
5998 -5997 5938 0
5998 -5939 0
-5999 5998 0
-5999 -5939 0
5999 -5998 5939 0
5999 -5940 0
-6000 5999 0
-6000 -5940 0
6000 -5999 5940 0
6000 -5941 0
-6001 6000 0
-6001 -5941 0
6001 -6000 5941 0
6001 -5942 0
-6002 6001 0
-6002 -5942 0
6002 -6001 5942 0
6002 -5943 0
-6003 6002 0
-6003 -5943 0
6003 -6002 5943 0
6003 -5944 0
-6004 6003 0
-6004 -5944 0
6004 -6003 5944 0
6004 -5945 0
-6005 6004 0
-6005 -5945 0
6005 -6004 5945 0
6005 -5946 0
-6006 6005 0
-6006 -5946 0
6006 -6005 5946 0
6006 -5947 0
-6007 6006 0
-6007 -5947 0
6007 -6006 5947 0
6007 -5948 0
-6008 6007 0
-6008 -5948 0
6008 -6007 5948 0
6008 -5949 0
-6009 6008 0
-6009 -5949 0
6009 -6008 5949 0
6009 -5950 0
-6010 6009 0
-6010 -5950 0
6010 -6009 5950 0
6010 -5951 0
-6011 6010 0
-6011 -5951 0
6011 -6010 5951 0
6011 -5952 0
-6012 6011 0
-6012 -5952 0
6012 -6011 5952 0
6012 -5953 0
-6013 6012 0
-6013 -5953 0
6013 -6012 5953 0
6013 -5954 0
-6014 6013 0
-6014 -5954 0
6014 -6013 5954 0
6014 -5955 0
-6015 6014 0
-6015 -5955 0
6015 -6014 5955 0
6015 -5956 0
-6016 6015 0
-6016 -5956 0
6016 -6015 5956 0
6016 -5957 0
-6017 6016 0
-6017 -5957 0
6017 -6016 5957 0
-6018 12 0
-6018 34 0
6018 -12 -34 0
-6019 32 0
-6019 33 0
6019 -32 -33 0
-6020 31 0
-6020 53 0
6020 -31 -53 0
-6021 30 0
-6021 52 0
6021 -30 -52 0
-6022 29 0
-6022 51 0
6022 -29 -51 0
-6023 28 0
-6023 50 0
6023 -28 -50 0
-6024 27 0
-6024 49 0
6024 -27 -49 0
-6025 26 0
-6025 48 0
6025 -26 -48 0
-6026 25 0
-6026 47 0
6026 -25 -47 0
-6027 24 0
-6027 46 0
6027 -24 -46 0
-6028 23 0
-6028 45 0
6028 -23 -45 0
-6029 22 0
-6029 44 0
6029 -22 -44 0
-6030 21 0
-6030 43 0
6030 -21 -43 0
-6031 20 0
-6031 42 0
6031 -20 -42 0
-6032 19 0
-6032 41 0
6032 -19 -41 0
-6033 18 0
-6033 40 0
6033 -18 -40 0
-6034 17 0
-6034 39 0
6034 -17 -39 0
-6035 16 0
-6035 38 0
6035 -16 -38 0
-6036 15 0
-6036 37 0
6036 -15 -37 0
-6037 14 0
-6037 36 0
6037 -14 -36 0
-6038 13 0
-6038 35 0
6038 -13 -35 0
-6039 54 0
-6039 64 0
6039 -54 -64 0
-6040 55 0
-6040 84 0
6040 -55 -84 0
-6041 56 0
-6041 83 0
6041 -56 -83 0
-6042 57 0
-6042 82 0
6042 -57 -82 0
-6043 58 0
-6043 81 0
6043 -58 -81 0
-6044 59 0
-6044 80 0
6044 -59 -80 0
-6045 60 0
-6045 79 0
6045 -60 -79 0
-6046 61 0
-6046 78 0
6046 -61 -78 0
-6047 62 0
-6047 77 0
6047 -62 -77 0
-6048 63 0
-6048 76 0
6048 -63 -76 0
-6049 62 0
-6049 74 0
6049 -62 -74 0
-6050 61 0
-6050 73 0
6050 -61 -73 0
-6051 60 0
-6051 72 0
6051 -60 -72 0
-6052 59 0
-6052 71 0
6052 -59 -71 0
-6053 58 0
-6053 70 0
6053 -58 -70 0
-6054 57 0
-6054 69 0
6054 -57 -69 0
-6055 56 0
-6055 68 0
6055 -56 -68 0
-6056 55 0
-6056 67 0
6056 -55 -67 0
-6057 54 0
-6057 66 0
6057 -54 -66 0
-6058 64 0
-6058 85 0
6058 -64 -85 0
-6059 66 0
-6059 85 0
6059 -66 -85 0
-6060 67 0
-6060 86 0
6060 -67 -86 0
-6061 68 0
-6061 87 0
6061 -68 -87 0
-6062 69 0
-6062 88 0
6062 -69 -88 0
-6063 70 0
-6063 89 0
6063 -70 -89 0
-6064 71 0
-6064 90 0
6064 -71 -90 0
-6065 72 0
-6065 91 0
6065 -72 -91 0
-6066 73 0
-6066 92 0
6066 -73 -92 0
-6067 74 0
-6067 93 0
6067 -74 -93 0
-6068 76 0
-6068 94 0
6068 -76 -94 0
-6069 77 0
-6069 93 0
6069 -77 -93 0
-6070 78 0
-6070 92 0
6070 -78 -92 0
-6071 79 0
-6071 91 0
6071 -79 -91 0
-6072 80 0
-6072 90 0
6072 -80 -90 0
-6073 81 0
-6073 89 0
6073 -81 -89 0
-6074 82 0
-6074 88 0
6074 -82 -88 0
-6075 83 0
-6075 87 0
6075 -83 -87 0
-6076 84 0
-6076 86 0
6076 -84 -86 0
1 -6018 0
-6018 -6019 0
-6077 -6018 0
-6077 -6019 0
6077 6018 6019 0
6077 -6020 0
-6078 6077 0
-6078 -6020 0
6078 -6077 6020 0
6078 -6021 0
-6079 6078 0
-6079 -6021 0
6079 -6078 6021 0
6079 -6022 0
-6080 6079 0
-6080 -6022 0
6080 -6079 6022 0
6080 -6023 0
-6081 6080 0
-6081 -6023 0
6081 -6080 6023 0
6081 -6024 0
-6082 6081 0
-6082 -6024 0
6082 -6081 6024 0
6082 -6025 0
-6083 6082 0
-6083 -6025 0
6083 -6082 6025 0
6083 -6026 0
-6084 6083 0
-6084 -6026 0
6084 -6083 6026 0
6084 -6027 0
-6085 6084 0
-6085 -6027 0
6085 -6084 6027 0
6085 -6028 0
-6086 6085 0
-6086 -6028 0
6086 -6085 6028 0
6086 -6029 0
-6087 6086 0
-6087 -6029 0
6087 -6086 6029 0
6087 -6030 0
-6088 6087 0
-6088 -6030 0
6088 -6087 6030 0
6088 -6031 0
-6089 6088 0
-6089 -6031 0
6089 -6088 6031 0
6089 -6032 0
-6090 6089 0
-6090 -6032 0
6090 -6089 6032 0
6090 -6033 0
-6091 6090 0
-6091 -6033 0
6091 -6090 6033 0
6091 -6034 0
-6092 6091 0
-6092 -6034 0
6092 -6091 6034 0
6092 -6035 0
-6093 6092 0
-6093 -6035 0
6093 -6092 6035 0
6093 -6036 0
-6094 6093 0
-6094 -6036 0
6094 -6093 6036 0
6094 -6037 0
-6095 6094 0
-6095 -6037 0
6095 -6094 6037 0
6095 -6038 0
-6096 6095 0
-6096 -6038 0
6096 -6095 6038 0
6096 -6039 0
-6097 6096 0
-6097 -6039 0
6097 -6096 6039 0
6097 -6040 0
-6098 6097 0
-6098 -6040 0
6098 -6097 6040 0
6098 -6041 0
-6099 6098 0
-6099 -6041 0
6099 -6098 6041 0
6099 -6042 0
-6100 6099 0
-6100 -6042 0
6100 -6099 6042 0
6100 -6043 0
-6101 6100 0
-6101 -6043 0
6101 -6100 6043 0
6101 -6044 0
-6102 6101 0
-6102 -6044 0
6102 -6101 6044 0
6102 -6045 0
-6103 6102 0
-6103 -6045 0
6103 -6102 6045 0
6103 -6046 0
-6104 6103 0
-6104 -6046 0
6104 -6103 6046 0
6104 -6047 0
-6105 6104 0
-6105 -6047 0
6105 -6104 6047 0
6105 -6048 0
-6106 6105 0
-6106 -6048 0
6106 -6105 6048 0
6106 -5927 0
-6107 6106 0
-6107 -5927 0
6107 -6106 5927 0
6107 -6049 0
-6108 6107 0
-6108 -6049 0
6108 -6107 6049 0
6108 -6050 0
-6109 6108 0
-6109 -6050 0
6109 -6108 6050 0
6109 -6051 0
-6110 6109 0
-6110 -6051 0
6110 -6109 6051 0
6110 -6052 0
-6111 6110 0
-6111 -6052 0
6111 -6110 6052 0
6111 -6053 0
-6112 6111 0
-6112 -6053 0
6112 -6111 6053 0
6112 -6054 0
-6113 6112 0
-6113 -6054 0
6113 -6112 6054 0
6113 -6055 0
-6114 6113 0
-6114 -6055 0
6114 -6113 6055 0
6114 -6056 0
-6115 6114 0
-6115 -6056 0
6115 -6114 6056 0
6115 -6057 0
-6116 6115 0
-6116 -6057 0
6116 -6115 6057 0
6116 -6058 0
-6117 6116 0
-6117 -6058 0
6117 -6116 6058 0
6117 -6059 0
-6118 6117 0
-6118 -6059 0
6118 -6117 6059 0
6118 -6060 0
-6119 6118 0
-6119 -6060 0
6119 -6118 6060 0
6119 -6061 0
-6120 6119 0
-6120 -6061 0
6120 -6119 6061 0
6120 -6062 0
-6121 6120 0
-6121 -6062 0
6121 -6120 6062 0
6121 -6063 0
-6122 6121 0
-6122 -6063 0
6122 -6121 6063 0
6122 -6064 0
-6123 6122 0
-6123 -6064 0
6123 -6122 6064 0
6123 -6065 0
-6124 6123 0
-6124 -6065 0
6124 -6123 6065 0
6124 -6066 0
-6125 6124 0
-6125 -6066 0
6125 -6124 6066 0
6125 -6067 0
-6126 6125 0
-6126 -6067 0
6126 -6125 6067 0
6126 -5948 0
-6127 6126 0
-6127 -5948 0
6127 -6126 5948 0
6127 -6068 0
-6128 6127 0
-6128 -6068 0
6128 -6127 6068 0
6128 -6069 0
-6129 6128 0
-6129 -6069 0
6129 -6128 6069 0
6129 -6070 0
-6130 6129 0
-6130 -6070 0
6130 -6129 6070 0
6130 -6071 0
-6131 6130 0
-6131 -6071 0
6131 -6130 6071 0
6131 -6072 0
-6132 6131 0
-6132 -6072 0
6132 -6131 6072 0
6132 -6073 0
-6133 6132 0
-6133 -6073 0
6133 -6132 6073 0
6133 -6074 0
-6134 6133 0
-6134 -6074 0
6134 -6133 6074 0
6134 -6075 0
-6135 6134 0
-6135 -6075 0
6135 -6134 6075 0
6135 -6076 0
-6136 6135 0
-6136 -6076 0
6136 -6135 6076 0
-6137 12 0
-6137 35 0
6137 -12 -35 0
-6138 32 0
-6138 34 0
6138 -32 -34 0
-6139 31 0
-6139 33 0
6139 -31 -33 0
-6140 30 0
-6140 53 0
6140 -30 -53 0
-6141 29 0
-6141 52 0
6141 -29 -52 0
-6142 28 0
-6142 51 0
6142 -28 -51 0
-6143 27 0
-6143 50 0
6143 -27 -50 0
-6144 26 0
-6144 49 0
6144 -26 -49 0
-6145 25 0
-6145 48 0
6145 -25 -48 0
-6146 24 0
-6146 47 0
6146 -24 -47 0
-6147 23 0
-6147 46 0
6147 -23 -46 0
-6148 22 0
-6148 45 0
6148 -22 -45 0
-6149 21 0
-6149 44 0
6149 -21 -44 0
-6150 20 0
-6150 43 0
6150 -20 -43 0
-6151 19 0
-6151 42 0
6151 -19 -42 0
-6152 18 0
-6152 41 0
6152 -18 -41 0
-6153 17 0
-6153 40 0
6153 -17 -40 0
-6154 16 0
-6154 39 0
6154 -16 -39 0
-6155 15 0
-6155 38 0
6155 -15 -38 0
-6156 14 0
-6156 37 0
6156 -14 -37 0
-6157 13 0
-6157 36 0
6157 -13 -36 0
-6158 55 0
-6158 64 0
6158 -55 -64 0
-6159 56 0
-6159 84 0
6159 -56 -84 0
-6160 57 0
-6160 83 0
6160 -57 -83 0
-6161 58 0
-6161 82 0
6161 -58 -82 0
-6162 59 0
-6162 81 0
6162 -59 -81 0
-6163 60 0
-6163 80 0
6163 -60 -80 0
-6164 61 0
-6164 79 0
6164 -61 -79 0
-6165 62 0
-6165 78 0
6165 -62 -78 0
-6166 63 0
-6166 77 0
6166 -63 -77 0
-6167 62 0
-6167 75 0
6167 -62 -75 0
-6168 61 0
-6168 74 0
6168 -61 -74 0
-6169 60 0
-6169 73 0
6169 -60 -73 0
-6170 59 0
-6170 72 0
6170 -59 -72 0
-6171 58 0
-6171 71 0
6171 -58 -71 0
-6172 57 0
-6172 70 0
6172 -57 -70 0
-6173 56 0
-6173 69 0
6173 -56 -69 0
-6174 55 0
-6174 68 0
6174 -55 -68 0
-6175 54 0
-6175 67 0
6175 -54 -67 0
-6176 64 0
-6176 86 0
6176 -64 -86 0
-6177 67 0
-6177 85 0
6177 -67 -85 0
-6178 68 0
-6178 86 0
6178 -68 -86 0
-6179 69 0
-6179 87 0
6179 -69 -87 0
-6180 70 0
-6180 88 0
6180 -70 -88 0
-6181 71 0
-6181 89 0
6181 -71 -89 0
-6182 72 0
-6182 90 0
6182 -72 -90 0
-6183 73 0
-6183 91 0
6183 -73 -91 0
-6184 74 0
-6184 92 0
6184 -74 -92 0
-6185 75 0
-6185 93 0
6185 -75 -93 0
-6186 77 0
-6186 94 0
6186 -77 -94 0
-6187 78 0
-6187 93 0
6187 -78 -93 0
-6188 79 0
-6188 92 0
6188 -79 -92 0
-6189 80 0
-6189 91 0
6189 -80 -91 0
-6190 81 0
-6190 90 0
6190 -81 -90 0
-6191 82 0
-6191 89 0
6191 -82 -89 0
-6192 83 0
-6192 88 0
6192 -83 -88 0
-6193 84 0
-6193 87 0
6193 -84 -87 0
1 -6137 0
-6137 -6138 0
-6194 -6137 0
-6194 -6138 0
6194 6137 6138 0
6194 -6139 0
-6195 6194 0
-6195 -6139 0
6195 -6194 6139 0
6195 -6140 0
-6196 6195 0
-6196 -6140 0
6196 -6195 6140 0
6196 -6141 0
-6197 6196 0
-6197 -6141 0
6197 -6196 6141 0
6197 -6142 0
-6198 6197 0
-6198 -6142 0
6198 -6197 6142 0
6198 -6143 0
-6199 6198 0
-6199 -6143 0
6199 -6198 6143 0
6199 -6144 0
-6200 6199 0
-6200 -6144 0
6200 -6199 6144 0
6200 -6145 0
-6201 6200 0
-6201 -6145 0
6201 -6200 6145 0
6201 -6146 0
-6202 6201 0
-6202 -6146 0
6202 -6201 6146 0
6202 -6147 0
-6203 6202 0
-6203 -6147 0
6203 -6202 6147 0
6203 -6148 0
-6204 6203 0
-6204 -6148 0
6204 -6203 6148 0
6204 -6149 0
-6205 6204 0
-6205 -6149 0
6205 -6204 6149 0
6205 -6150 0
-6206 6205 0
-6206 -6150 0
6206 -6205 6150 0
6206 -6151 0
-6207 6206 0
-6207 -6151 0
6207 -6206 6151 0
6207 -6152 0
-6208 6207 0
-6208 -6152 0
6208 -6207 6152 0
6208 -6153 0
-6209 6208 0
-6209 -6153 0
6209 -6208 6153 0
6209 -6154 0
-6210 6209 0
-6210 -6154 0
6210 -6209 6154 0
6210 -6155 0
-6211 6210 0
-6211 -6155 0
6211 -6210 6155 0
6211 -6156 0
-6212 6211 0
-6212 -6156 0
6212 -6211 6156 0
6212 -6157 0
-6213 6212 0
-6213 -6157 0
6213 -6212 6157 0
6213 -5937 0
-6214 6213 0
-6214 -5937 0
6214 -6213 5937 0
6214 -6158 0
-6215 6214 0
-6215 -6158 0
6215 -6214 6158 0
6215 -6159 0
-6216 6215 0
-6216 -6159 0
6216 -6215 6159 0
6216 -6160 0
-6217 6216 0
-6217 -6160 0
6217 -6216 6160 0
6217 -6161 0
-6218 6217 0
-6218 -6161 0
6218 -6217 6161 0
6218 -6162 0
-6219 6218 0
-6219 -6162 0
6219 -6218 6162 0
6219 -6163 0
-6220 6219 0
-6220 -6163 0
6220 -6219 6163 0
6220 -6164 0
-6221 6220 0
-6221 -6164 0
6221 -6220 6164 0
6221 -6165 0
-6222 6221 0
-6222 -6165 0
6222 -6221 6165 0
6222 -6166 0
-6223 6222 0
-6223 -6166 0
6223 -6222 6166 0
6223 -6048 0
-6224 6223 0
-6224 -6048 0
6224 -6223 6048 0
6224 -6167 0
-6225 6224 0
-6225 -6167 0
6225 -6224 6167 0
6225 -6168 0
-6226 6225 0
-6226 -6168 0
6226 -6225 6168 0
6226 -6169 0
-6227 6226 0
-6227 -6169 0
6227 -6226 6169 0
6227 -6170 0
-6228 6227 0
-6228 -6170 0
6228 -6227 6170 0
6228 -6171 0
-6229 6228 0
-6229 -6171 0
6229 -6228 6171 0
6229 -6172 0
-6230 6229 0
-6230 -6172 0
6230 -6229 6172 0
6230 -6173 0
-6231 6230 0
-6231 -6173 0
6231 -6230 6173 0
6231 -6174 0
-6232 6231 0
-6232 -6174 0
6232 -6231 6174 0
6232 -6175 0
-6233 6232 0
-6233 -6175 0
6233 -6232 6175 0
6233 -6176 0
-6234 6233 0
-6234 -6176 0
6234 -6233 6176 0
6234 -5938 0
-6235 6234 0
-6235 -5938 0
6235 -6234 5938 0
6235 -6177 0
-6236 6235 0
-6236 -6177 0
6236 -6235 6177 0
6236 -6178 0
-6237 6236 0
-6237 -6178 0
6237 -6236 6178 0
6237 -6179 0
-6238 6237 0
-6238 -6179 0
6238 -6237 6179 0
6238 -6180 0
-6239 6238 0
-6239 -6180 0
6239 -6238 6180 0
6239 -6181 0
-6240 6239 0
-6240 -6181 0
6240 -6239 6181 0
6240 -6182 0
-6241 6240 0
-6241 -6182 0
6241 -6240 6182 0
6241 -6183 0
-6242 6241 0
-6242 -6183 0
6242 -6241 6183 0
6242 -6184 0
-6243 6242 0
-6243 -6184 0
6243 -6242 6184 0
6243 -6185 0
-6244 6243 0
-6244 -6185 0
6244 -6243 6185 0
6244 -6068 0
-6245 6244 0
-6245 -6068 0
6245 -6244 6068 0
6245 -6186 0
-6246 6245 0
-6246 -6186 0
6246 -6245 6186 0
6246 -6187 0
-6247 6246 0
-6247 -6187 0
6247 -6246 6187 0
6247 -6188 0
-6248 6247 0
-6248 -6188 0
6248 -6247 6188 0
6248 -6189 0
-6249 6248 0
-6249 -6189 0
6249 -6248 6189 0
6249 -6190 0
-6250 6249 0
-6250 -6190 0
6250 -6249 6190 0
6250 -6191 0
-6251 6250 0
-6251 -6191 0
6251 -6250 6191 0
6251 -6192 0
-6252 6251 0
-6252 -6192 0
6252 -6251 6192 0
6252 -6193 0
-6253 6252 0
-6253 -6193 0
6253 -6252 6193 0
-6254 12 0
-6254 36 0
6254 -12 -36 0
-6255 32 0
-6255 35 0
6255 -32 -35 0
-6256 31 0
-6256 34 0
6256 -31 -34 0
-6257 30 0
-6257 33 0
6257 -30 -33 0
-6258 29 0
-6258 53 0
6258 -29 -53 0
-6259 28 0
-6259 52 0
6259 -28 -52 0
-6260 27 0
-6260 51 0
6260 -27 -51 0
-6261 26 0
-6261 50 0
6261 -26 -50 0
-6262 25 0
-6262 49 0
6262 -25 -49 0
-6263 24 0
-6263 48 0
6263 -24 -48 0
-6264 23 0
-6264 47 0
6264 -23 -47 0
-6265 22 0
-6265 46 0
6265 -22 -46 0
-6266 21 0
-6266 45 0
6266 -21 -45 0
-6267 20 0
-6267 44 0
6267 -20 -44 0
-6268 19 0
-6268 43 0
6268 -19 -43 0
-6269 18 0
-6269 42 0
6269 -18 -42 0
-6270 17 0
-6270 41 0
6270 -17 -41 0
-6271 16 0
-6271 40 0
6271 -16 -40 0
-6272 15 0
-6272 39 0
6272 -15 -39 0
-6273 14 0
-6273 38 0
6273 -14 -38 0
-6274 13 0
-6274 37 0
6274 -13 -37 0
-6275 55 0
-6275 65 0
6275 -55 -65 0
-6276 56 0
-6276 64 0
6276 -56 -64 0
-6277 57 0
-6277 84 0
6277 -57 -84 0
-6278 58 0
-6278 83 0
6278 -58 -83 0
-6279 59 0
-6279 82 0
6279 -59 -82 0
-6280 60 0
-6280 81 0
6280 -60 -81 0
-6281 61 0
-6281 80 0
6281 -61 -80 0
-6282 62 0
-6282 79 0
6282 -62 -79 0
-6283 63 0
-6283 78 0
6283 -63 -78 0
-6284 61 0
-6284 75 0
6284 -61 -75 0
-6285 60 0
-6285 74 0
6285 -60 -74 0
-6286 59 0
-6286 73 0
6286 -59 -73 0
-6287 58 0
-6287 72 0
6287 -58 -72 0
-6288 57 0
-6288 71 0
6288 -57 -71 0
-6289 56 0
-6289 70 0
6289 -56 -70 0
-6290 55 0
-6290 69 0
6290 -55 -69 0
-6291 54 0
-6291 68 0
6291 -54 -68 0
-6292 64 0
-6292 87 0
6292 -64 -87 0
-6293 65 0
-6293 86 0
6293 -65 -86 0
-6294 68 0
-6294 85 0
6294 -68 -85 0
-6295 69 0
-6295 86 0
6295 -69 -86 0
-6296 70 0
-6296 87 0
6296 -70 -87 0
-6297 71 0
-6297 88 0
6297 -71 -88 0
-6298 72 0
-6298 89 0
6298 -72 -89 0
-6299 73 0
-6299 90 0
6299 -73 -90 0
-6300 74 0
-6300 91 0
6300 -74 -91 0
-6301 75 0
-6301 92 0
6301 -75 -92 0
-6302 78 0
-6302 94 0
6302 -78 -94 0
-6303 79 0
-6303 93 0
6303 -79 -93 0
-6304 80 0
-6304 92 0
6304 -80 -92 0
-6305 81 0
-6305 91 0
6305 -81 -91 0
-6306 82 0
-6306 90 0
6306 -82 -90 0
-6307 83 0
-6307 89 0
6307 -83 -89 0
-6308 84 0
-6308 88 0
6308 -84 -88 0
1 -6254 0
-6254 -6255 0
-6309 -6254 0
-6309 -6255 0
6309 6254 6255 0
6309 -6256 0
-6310 6309 0
-6310 -6256 0
6310 -6309 6256 0
6310 -6257 0
-6311 6310 0
-6311 -6257 0
6311 -6310 6257 0
6311 -6258 0
-6312 6311 0
-6312 -6258 0
6312 -6311 6258 0
6312 -6259 0
-6313 6312 0
-6313 -6259 0
6313 -6312 6259 0
6313 -6260 0
-6314 6313 0
-6314 -6260 0
6314 -6313 6260 0
6314 -6261 0
-6315 6314 0
-6315 -6261 0
6315 -6314 6261 0
6315 -6262 0
-6316 6315 0
-6316 -6262 0
6316 -6315 6262 0
6316 -6263 0
-6317 6316 0
-6317 -6263 0
6317 -6316 6263 0
6317 -6264 0
-6318 6317 0
-6318 -6264 0
6318 -6317 6264 0
6318 -6265 0
-6319 6318 0
-6319 -6265 0
6319 -6318 6265 0
6319 -6266 0
-6320 6319 0
-6320 -6266 0
6320 -6319 6266 0
6320 -6267 0
-6321 6320 0
-6321 -6267 0
6321 -6320 6267 0
6321 -6268 0
-6322 6321 0
-6322 -6268 0
6322 -6321 6268 0
6322 -6269 0
-6323 6322 0
-6323 -6269 0
6323 -6322 6269 0
6323 -6270 0
-6324 6323 0
-6324 -6270 0
6324 -6323 6270 0
6324 -6271 0
-6325 6324 0
-6325 -6271 0
6325 -6324 6271 0
6325 -6272 0
-6326 6325 0
-6326 -6272 0
6326 -6325 6272 0
6326 -6273 0
-6327 6326 0
-6327 -6273 0
6327 -6326 6273 0
6327 -6274 0
-6328 6327 0
-6328 -6274 0
6328 -6327 6274 0
6328 -6057 0
-6329 6328 0
-6329 -6057 0
6329 -6328 6057 0
6329 -6275 0
-6330 6329 0
-6330 -6275 0
6330 -6329 6275 0
6330 -6276 0
-6331 6330 0
-6331 -6276 0
6331 -6330 6276 0
6331 -6277 0
-6332 6331 0
-6332 -6277 0
6332 -6331 6277 0
6332 -6278 0
-6333 6332 0
-6333 -6278 0
6333 -6332 6278 0
6333 -6279 0
-6334 6333 0
-6334 -6279 0
6334 -6333 6279 0
6334 -6280 0
-6335 6334 0
-6335 -6280 0
6335 -6334 6280 0
6335 -6281 0
-6336 6335 0
-6336 -6281 0
6336 -6335 6281 0
6336 -6282 0
-6337 6336 0
-6337 -6282 0
6337 -6336 6282 0
6337 -6283 0
-6338 6337 0
-6338 -6283 0
6338 -6337 6283 0
6338 -6166 0
-6339 6338 0
-6339 -6166 0
6339 -6338 6166 0
6339 -5926 0
-6340 6339 0
-6340 -5926 0
6340 -6339 5926 0
6340 -6284 0
-6341 6340 0
-6341 -6284 0
6341 -6340 6284 0
6341 -6285 0
-6342 6341 0
-6342 -6285 0
6342 -6341 6285 0
6342 -6286 0
-6343 6342 0
-6343 -6286 0
6343 -6342 6286 0
6343 -6287 0
-6344 6343 0
-6344 -6287 0
6344 -6343 6287 0
6344 -6288 0
-6345 6344 0
-6345 -6288 0
6345 -6344 6288 0
6345 -6289 0
-6346 6345 0
-6346 -6289 0
6346 -6345 6289 0
6346 -6290 0
-6347 6346 0
-6347 -6290 0
6347 -6346 6290 0
6347 -6291 0
-6348 6347 0
-6348 -6291 0
6348 -6347 6291 0
6348 -6292 0
-6349 6348 0
-6349 -6292 0
6349 -6348 6292 0
6349 -6293 0
-6350 6349 0
-6350 -6293 0
6350 -6349 6293 0
6350 -6059 0
-6351 6350 0
-6351 -6059 0
6351 -6350 6059 0
6351 -6294 0
-6352 6351 0
-6352 -6294 0
6352 -6351 6294 0
6352 -6295 0
-6353 6352 0
-6353 -6295 0
6353 -6352 6295 0
6353 -6296 0
-6354 6353 0
-6354 -6296 0
6354 -6353 6296 0
6354 -6297 0
-6355 6354 0
-6355 -6297 0
6355 -6354 6297 0
6355 -6298 0
-6356 6355 0
-6356 -6298 0
6356 -6355 6298 0
6356 -6299 0
-6357 6356 0
-6357 -6299 0
6357 -6356 6299 0
6357 -6300 0
-6358 6357 0
-6358 -6300 0
6358 -6357 6300 0
6358 -6301 0
-6359 6358 0
-6359 -6301 0
6359 -6358 6301 0
6359 -5949 0
-6360 6359 0
-6360 -5949 0
6360 -6359 5949 0
6360 -6186 0
-6361 6360 0
-6361 -6186 0
6361 -6360 6186 0
6361 -6302 0
-6362 6361 0
-6362 -6302 0
6362 -6361 6302 0
6362 -6303 0
-6363 6362 0
-6363 -6303 0
6363 -6362 6303 0
6363 -6304 0
-6364 6363 0
-6364 -6304 0
6364 -6363 6304 0
6364 -6305 0
-6365 6364 0
-6365 -6305 0
6365 -6364 6305 0
6365 -6306 0
-6366 6365 0
-6366 -6306 0
6366 -6365 6306 0
6366 -6307 0
-6367 6366 0
-6367 -6307 0
6367 -6366 6307 0
6367 -6308 0
-6368 6367 0
-6368 -6308 0
6368 -6367 6308 0
-6369 12 0
-6369 37 0
6369 -12 -37 0
-6370 32 0
-6370 36 0
6370 -32 -36 0
-6371 31 0
-6371 35 0
6371 -31 -35 0
-6372 30 0
-6372 34 0
6372 -30 -34 0
-6373 29 0
-6373 33 0
6373 -29 -33 0
-6374 28 0
-6374 53 0
6374 -28 -53 0
-6375 27 0
-6375 52 0
6375 -27 -52 0
-6376 26 0
-6376 51 0
6376 -26 -51 0
-6377 25 0
-6377 50 0
6377 -25 -50 0
-6378 24 0
-6378 49 0
6378 -24 -49 0
-6379 23 0
-6379 48 0
6379 -23 -48 0
-6380 22 0
-6380 47 0
6380 -22 -47 0
-6381 21 0
-6381 46 0
6381 -21 -46 0
-6382 20 0
-6382 45 0
6382 -20 -45 0
-6383 19 0
-6383 44 0
6383 -19 -44 0
-6384 18 0
-6384 43 0
6384 -18 -43 0
-6385 17 0
-6385 42 0
6385 -17 -42 0
-6386 16 0
-6386 41 0
6386 -16 -41 0
-6387 15 0
-6387 40 0
6387 -15 -40 0
-6388 14 0
-6388 39 0
6388 -14 -39 0
-6389 13 0
-6389 38 0
6389 -13 -38 0
-6390 56 0
-6390 65 0
6390 -56 -65 0
-6391 57 0
-6391 64 0
6391 -57 -64 0
-6392 58 0
-6392 84 0
6392 -58 -84 0
-6393 59 0
-6393 83 0
6393 -59 -83 0
-6394 60 0
-6394 82 0
6394 -60 -82 0
-6395 61 0
-6395 81 0
6395 -61 -81 0
-6396 62 0
-6396 80 0
6396 -62 -80 0
-6397 63 0
-6397 79 0
6397 -63 -79 0
-6398 61 0
-6398 76 0
6398 -61 -76 0
-6399 60 0
-6399 75 0
6399 -60 -75 0
-6400 59 0
-6400 74 0
6400 -59 -74 0
-6401 58 0
-6401 73 0
6401 -58 -73 0
-6402 57 0
-6402 72 0
6402 -57 -72 0
-6403 56 0
-6403 71 0
6403 -56 -71 0
-6404 55 0
-6404 70 0
6404 -55 -70 0
-6405 54 0
-6405 69 0
6405 -54 -69 0
-6406 64 0
-6406 88 0
6406 -64 -88 0
-6407 65 0
-6407 87 0
6407 -65 -87 0
-6408 69 0
-6408 85 0
6408 -69 -85 0
-6409 70 0
-6409 86 0
6409 -70 -86 0
-6410 71 0
-6410 87 0
6410 -71 -87 0
-6411 72 0
-6411 88 0
6411 -72 -88 0
-6412 73 0
-6412 89 0
6412 -73 -89 0
-6413 74 0
-6413 90 0
6413 -74 -90 0
-6414 75 0
-6414 91 0
6414 -75 -91 0
-6415 76 0
-6415 92 0
6415 -76 -92 0
-6416 79 0
-6416 94 0
6416 -79 -94 0
-6417 80 0
-6417 93 0
6417 -80 -93 0
-6418 81 0
-6418 92 0
6418 -81 -92 0
-6419 82 0
-6419 91 0
6419 -82 -91 0
-6420 83 0
-6420 90 0
6420 -83 -90 0
-6421 84 0
-6421 89 0
6421 -84 -89 0
1 -6369 0
-6369 -6370 0
-6422 -6369 0
-6422 -6370 0
6422 6369 6370 0
6422 -6371 0
-6423 6422 0
-6423 -6371 0
6423 -6422 6371 0
6423 -6372 0
-6424 6423 0
-6424 -6372 0
6424 -6423 6372 0
6424 -6373 0
-6425 6424 0
-6425 -6373 0
6425 -6424 6373 0
6425 -6374 0
-6426 6425 0
-6426 -6374 0
6426 -6425 6374 0
6426 -6375 0
-6427 6426 0
-6427 -6375 0
6427 -6426 6375 0
6427 -6376 0
-6428 6427 0
-6428 -6376 0
6428 -6427 6376 0
6428 -6377 0
-6429 6428 0
-6429 -6377 0
6429 -6428 6377 0
6429 -6378 0
-6430 6429 0
-6430 -6378 0
6430 -6429 6378 0
6430 -6379 0
-6431 6430 0
-6431 -6379 0
6431 -6430 6379 0
6431 -6380 0
-6432 6431 0
-6432 -6380 0
6432 -6431 6380 0
6432 -6381 0
-6433 6432 0
-6433 -6381 0
6433 -6432 6381 0
6433 -6382 0
-6434 6433 0
-6434 -6382 0
6434 -6433 6382 0
6434 -6383 0
-6435 6434 0
-6435 -6383 0
6435 -6434 6383 0
6435 -6384 0
-6436 6435 0
-6436 -6384 0
6436 -6435 6384 0
6436 -6385 0
-6437 6436 0
-6437 -6385 0
6437 -6436 6385 0
6437 -6386 0
-6438 6437 0
-6438 -6386 0
6438 -6437 6386 0
6438 -6387 0
-6439 6438 0
-6439 -6387 0
6439 -6438 6387 0
6439 -6388 0
-6440 6439 0
-6440 -6388 0
6440 -6439 6388 0
6440 -6389 0
-6441 6440 0
-6441 -6389 0
6441 -6440 6389 0
6441 -6175 0
-6442 6441 0
-6442 -6175 0
6442 -6441 6175 0
6442 -5936 0
-6443 6442 0
-6443 -5936 0
6443 -6442 5936 0
6443 -6390 0
-6444 6443 0
-6444 -6390 0
6444 -6443 6390 0
6444 -6391 0
-6445 6444 0
-6445 -6391 0
6445 -6444 6391 0
6445 -6392 0
-6446 6445 0
-6446 -6392 0
6446 -6445 6392 0
6446 -6393 0
-6447 6446 0
-6447 -6393 0
6447 -6446 6393 0
6447 -6394 0
-6448 6447 0
-6448 -6394 0
6448 -6447 6394 0
6448 -6395 0
-6449 6448 0
-6449 -6395 0
6449 -6448 6395 0
6449 -6396 0
-6450 6449 0
-6450 -6396 0
6450 -6449 6396 0
6450 -6397 0
-6451 6450 0
-6451 -6397 0
6451 -6450 6397 0
6451 -6283 0
-6452 6451 0
-6452 -6283 0
6452 -6451 6283 0
6452 -6047 0
-6453 6452 0
-6453 -6047 0
6453 -6452 6047 0
6453 -6398 0
-6454 6453 0
-6454 -6398 0
6454 -6453 6398 0
6454 -6399 0
-6455 6454 0
-6455 -6399 0
6455 -6454 6399 0
6455 -6400 0
-6456 6455 0
-6456 -6400 0
6456 -6455 6400 0
6456 -6401 0
-6457 6456 0
-6457 -6401 0
6457 -6456 6401 0
6457 -6402 0
-6458 6457 0
-6458 -6402 0
6458 -6457 6402 0
6458 -6403 0
-6459 6458 0
-6459 -6403 0
6459 -6458 6403 0
6459 -6404 0
-6460 6459 0
-6460 -6404 0
6460 -6459 6404 0
6460 -6405 0
-6461 6460 0
-6461 -6405 0
6461 -6460 6405 0
6461 -6406 0
-6462 6461 0
-6462 -6406 0
6462 -6461 6406 0
6462 -6407 0
-6463 6462 0
-6463 -6407 0
6463 -6462 6407 0
6463 -5939 0
-6464 6463 0
-6464 -5939 0
6464 -6463 5939 0
6464 -6177 0
-6465 6464 0
-6465 -6177 0
6465 -6464 6177 0
6465 -6408 0
-6466 6465 0
-6466 -6408 0
6466 -6465 6408 0
6466 -6409 0
-6467 6466 0
-6467 -6409 0
6467 -6466 6409 0
6467 -6410 0
-6468 6467 0
-6468 -6410 0
6468 -6467 6410 0
6468 -6411 0
-6469 6468 0
-6469 -6411 0
6469 -6468 6411 0
6469 -6412 0
-6470 6469 0
-6470 -6412 0
6470 -6469 6412 0
6470 -6413 0
-6471 6470 0
-6471 -6413 0
6471 -6470 6413 0
6471 -6414 0
-6472 6471 0
-6472 -6414 0
6472 -6471 6414 0
6472 -6415 0
-6473 6472 0
-6473 -6415 0
6473 -6472 6415 0
6473 -6069 0
-6474 6473 0
-6474 -6069 0
6474 -6473 6069 0
6474 -6302 0
-6475 6474 0
-6475 -6302 0
6475 -6474 6302 0
6475 -6416 0
-6476 6475 0
-6476 -6416 0
6476 -6475 6416 0
6476 -6417 0
-6477 6476 0
-6477 -6417 0
6477 -6476 6417 0
6477 -6418 0
-6478 6477 0
-6478 -6418 0
6478 -6477 6418 0
6478 -6419 0
-6479 6478 0
-6479 -6419 0
6479 -6478 6419 0
6479 -6420 0
-6480 6479 0
-6480 -6420 0
6480 -6479 6420 0
6480 -6421 0
-6481 6480 0
-6481 -6421 0
6481 -6480 6421 0
-6482 12 0
-6482 38 0
6482 -12 -38 0
-6483 32 0
-6483 37 0
6483 -32 -37 0
-6484 31 0
-6484 36 0
6484 -31 -36 0
-6485 30 0
-6485 35 0
6485 -30 -35 0
-6486 29 0
-6486 34 0
6486 -29 -34 0
-6487 28 0
-6487 33 0
6487 -28 -33 0
-6488 27 0
-6488 53 0
6488 -27 -53 0
-6489 26 0
-6489 52 0
6489 -26 -52 0
-6490 25 0
-6490 51 0
6490 -25 -51 0
-6491 24 0
-6491 50 0
6491 -24 -50 0
-6492 23 0
-6492 49 0
6492 -23 -49 0
-6493 22 0
-6493 48 0
6493 -22 -48 0
-6494 21 0
-6494 47 0
6494 -21 -47 0
-6495 20 0
-6495 46 0
6495 -20 -46 0
-6496 19 0
-6496 45 0
6496 -19 -45 0
-6497 18 0
-6497 44 0
6497 -18 -44 0
-6498 17 0
-6498 43 0
6498 -17 -43 0
-6499 16 0
-6499 42 0
6499 -16 -42 0
-6500 15 0
-6500 41 0
6500 -15 -41 0
-6501 14 0
-6501 40 0
6501 -14 -40 0
-6502 13 0
-6502 39 0
6502 -13 -39 0
-6503 56 0
-6503 66 0
6503 -56 -66 0
-6504 57 0
-6504 65 0
6504 -57 -65 0
-6505 58 0
-6505 64 0
6505 -58 -64 0
-6506 59 0
-6506 84 0
6506 -59 -84 0
-6507 60 0
-6507 83 0
6507 -60 -83 0
-6508 61 0
-6508 82 0
6508 -61 -82 0
-6509 62 0
-6509 81 0
6509 -62 -81 0
-6510 63 0
-6510 80 0
6510 -63 -80 0
-6511 60 0
-6511 76 0
6511 -60 -76 0
-6512 59 0
-6512 75 0
6512 -59 -75 0
-6513 58 0
-6513 74 0
6513 -58 -74 0
-6514 57 0
-6514 73 0
6514 -57 -73 0
-6515 56 0
-6515 72 0
6515 -56 -72 0
-6516 55 0
-6516 71 0
6516 -55 -71 0
-6517 54 0
-6517 70 0
6517 -54 -70 0
-6518 64 0
-6518 89 0
6518 -64 -89 0
-6519 65 0
-6519 88 0
6519 -65 -88 0
-6520 66 0
-6520 87 0
6520 -66 -87 0
-6521 70 0
-6521 85 0
6521 -70 -85 0
-6522 71 0
-6522 86 0
6522 -71 -86 0
-6523 72 0
-6523 87 0
6523 -72 -87 0
-6524 73 0
-6524 88 0
6524 -73 -88 0
-6525 74 0
-6525 89 0
6525 -74 -89 0
-6526 75 0
-6526 90 0
6526 -75 -90 0
-6527 76 0
-6527 91 0
6527 -76 -91 0
-6528 80 0
-6528 94 0
6528 -80 -94 0
-6529 81 0
-6529 93 0
6529 -81 -93 0
-6530 82 0
-6530 92 0
6530 -82 -92 0
-6531 83 0
-6531 91 0
6531 -83 -91 0
-6532 84 0
-6532 90 0
6532 -84 -90 0
1 -6482 0
-6482 -6483 0
-6533 -6482 0
-6533 -6483 0
6533 6482 6483 0
6533 -6484 0
-6534 6533 0
-6534 -6484 0
6534 -6533 6484 0
6534 -6485 0
-6535 6534 0
-6535 -6485 0
6535 -6534 6485 0
6535 -6486 0
-6536 6535 0
-6536 -6486 0
6536 -6535 6486 0
6536 -6487 0
-6537 6536 0
-6537 -6487 0
6537 -6536 6487 0
6537 -6488 0
-6538 6537 0
-6538 -6488 0
6538 -6537 6488 0
6538 -6489 0
-6539 6538 0
-6539 -6489 0
6539 -6538 6489 0
6539 -6490 0
-6540 6539 0
-6540 -6490 0
6540 -6539 6490 0
6540 -6491 0
-6541 6540 0
-6541 -6491 0
6541 -6540 6491 0
6541 -6492 0
-6542 6541 0
-6542 -6492 0
6542 -6541 6492 0
6542 -6493 0
-6543 6542 0
-6543 -6493 0
6543 -6542 6493 0
6543 -6494 0
-6544 6543 0
-6544 -6494 0
6544 -6543 6494 0
6544 -6495 0
-6545 6544 0
-6545 -6495 0
6545 -6544 6495 0
6545 -6496 0
-6546 6545 0
-6546 -6496 0
6546 -6545 6496 0
6546 -6497 0
-6547 6546 0
-6547 -6497 0
6547 -6546 6497 0
6547 -6498 0
-6548 6547 0
-6548 -6498 0
6548 -6547 6498 0
6548 -6499 0
-6549 6548 0
-6549 -6499 0
6549 -6548 6499 0
6549 -6500 0
-6550 6549 0
-6550 -6500 0
6550 -6549 6500 0
6550 -6501 0
-6551 6550 0
-6551 -6501 0
6551 -6550 6501 0
6551 -6502 0
-6552 6551 0
-6552 -6502 0
6552 -6551 6502 0
6552 -6291 0
-6553 6552 0
-6553 -6291 0
6553 -6552 6291 0
6553 -6056 0
-6554 6553 0
-6554 -6056 0
6554 -6553 6056 0
6554 -6503 0
-6555 6554 0
-6555 -6503 0
6555 -6554 6503 0
6555 -6504 0
-6556 6555 0
-6556 -6504 0
6556 -6555 6504 0
6556 -6505 0
-6557 6556 0
-6557 -6505 0
6557 -6556 6505 0
6557 -6506 0
-6558 6557 0
-6558 -6506 0
6558 -6557 6506 0
6558 -6507 0
-6559 6558 0
-6559 -6507 0
6559 -6558 6507 0
6559 -6508 0
-6560 6559 0
-6560 -6508 0
6560 -6559 6508 0
6560 -6509 0
-6561 6560 0
-6561 -6509 0
6561 -6560 6509 0
6561 -6510 0
-6562 6561 0
-6562 -6510 0
6562 -6561 6510 0
6562 -6397 0
-6563 6562 0
-6563 -6397 0
6563 -6562 6397 0
6563 -6165 0
-6564 6563 0
-6564 -6165 0
6564 -6563 6165 0
6564 -5925 0
-6565 6564 0
-6565 -5925 0
6565 -6564 5925 0
6565 -6511 0
-6566 6565 0
-6566 -6511 0
6566 -6565 6511 0
6566 -6512 0
-6567 6566 0
-6567 -6512 0
6567 -6566 6512 0
6567 -6513 0
-6568 6567 0
-6568 -6513 0
6568 -6567 6513 0
6568 -6514 0
-6569 6568 0
-6569 -6514 0
6569 -6568 6514 0
6569 -6515 0
-6570 6569 0
-6570 -6515 0
6570 -6569 6515 0
6570 -6516 0
-6571 6570 0
-6571 -6516 0
6571 -6570 6516 0
6571 -6517 0
-6572 6571 0
-6572 -6517 0
6572 -6571 6517 0
6572 -6518 0
-6573 6572 0
-6573 -6518 0
6573 -6572 6518 0
6573 -6519 0
-6574 6573 0
-6574 -6519 0
6574 -6573 6519 0
6574 -6520 0
-6575 6574 0
-6575 -6520 0
6575 -6574 6520 0
6575 -6060 0
-6576 6575 0
-6576 -6060 0
6576 -6575 6060 0
6576 -6294 0
-6577 6576 0
-6577 -6294 0
6577 -6576 6294 0
6577 -6521 0
-6578 6577 0
-6578 -6521 0
6578 -6577 6521 0
6578 -6522 0
-6579 6578 0
-6579 -6522 0
6579 -6578 6522 0
6579 -6523 0
-6580 6579 0
-6580 -6523 0
6580 -6579 6523 0
6580 -6524 0
-6581 6580 0
-6581 -6524 0
6581 -6580 6524 0
6581 -6525 0
-6582 6581 0
-6582 -6525 0
6582 -6581 6525 0
6582 -6526 0
-6583 6582 0
-6583 -6526 0
6583 -6582 6526 0
6583 -6527 0
-6584 6583 0
-6584 -6527 0
6584 -6583 6527 0
6584 -5950 0
-6585 6584 0
-6585 -5950 0
6585 -6584 5950 0
6585 -6187 0
-6586 6585 0
-6586 -6187 0
6586 -6585 6187 0
6586 -6416 0
-6587 6586 0
-6587 -6416 0
6587 -6586 6416 0
6587 -6528 0
-6588 6587 0
-6588 -6528 0
6588 -6587 6528 0
6588 -6529 0
-6589 6588 0
-6589 -6529 0
6589 -6588 6529 0
6589 -6530 0
-6590 6589 0
-6590 -6530 0
6590 -6589 6530 0
6590 -6531 0
-6591 6590 0
-6591 -6531 0
6591 -6590 6531 0
6591 -6532 0
-6592 6591 0
-6592 -6532 0
6592 -6591 6532 0
-6593 12 0
-6593 39 0
6593 -12 -39 0
-6594 32 0
-6594 38 0
6594 -32 -38 0
-6595 31 0
-6595 37 0
6595 -31 -37 0
-6596 30 0
-6596 36 0
6596 -30 -36 0
-6597 29 0
-6597 35 0
6597 -29 -35 0
-6598 28 0
-6598 34 0
6598 -28 -34 0
-6599 27 0
-6599 33 0
6599 -27 -33 0
-6600 26 0
-6600 53 0
6600 -26 -53 0
-6601 25 0
-6601 52 0
6601 -25 -52 0
-6602 24 0
-6602 51 0
6602 -24 -51 0
-6603 23 0
-6603 50 0
6603 -23 -50 0
-6604 22 0
-6604 49 0
6604 -22 -49 0
-6605 21 0
-6605 48 0
6605 -21 -48 0
-6606 20 0
-6606 47 0
6606 -20 -47 0
-6607 19 0
-6607 46 0
6607 -19 -46 0
-6608 18 0
-6608 45 0
6608 -18 -45 0
-6609 17 0
-6609 44 0
6609 -17 -44 0
-6610 16 0
-6610 43 0
6610 -16 -43 0
-6611 15 0
-6611 42 0
6611 -15 -42 0
-6612 14 0
-6612 41 0
6612 -14 -41 0
-6613 13 0
-6613 40 0
6613 -13 -40 0
-6614 57 0
-6614 66 0
6614 -57 -66 0
-6615 58 0
-6615 65 0
6615 -58 -65 0
-6616 59 0
-6616 64 0
6616 -59 -64 0
-6617 60 0
-6617 84 0
6617 -60 -84 0
-6618 61 0
-6618 83 0
6618 -61 -83 0
-6619 62 0
-6619 82 0
6619 -62 -82 0
-6620 63 0
-6620 81 0
6620 -63 -81 0
-6621 60 0
-6621 77 0
6621 -60 -77 0
-6622 59 0
-6622 76 0
6622 -59 -76 0
-6623 58 0
-6623 75 0
6623 -58 -75 0
-6624 57 0
-6624 74 0
6624 -57 -74 0
-6625 56 0
-6625 73 0
6625 -56 -73 0
-6626 55 0
-6626 72 0
6626 -55 -72 0
-6627 54 0
-6627 71 0
6627 -54 -71 0
-6628 64 0
-6628 90 0
6628 -64 -90 0
-6629 65 0
-6629 89 0
6629 -65 -89 0
-6630 66 0
-6630 88 0
6630 -66 -88 0
-6631 71 0
-6631 85 0
6631 -71 -85 0
-6632 72 0
-6632 86 0
6632 -72 -86 0
-6633 73 0
-6633 87 0
6633 -73 -87 0
-6634 74 0
-6634 88 0
6634 -74 -88 0
-6635 75 0
-6635 89 0
6635 -75 -89 0
-6636 76 0
-6636 90 0
6636 -76 -90 0
-6637 77 0
-6637 91 0
6637 -77 -91 0
-6638 81 0
-6638 94 0
6638 -81 -94 0
-6639 82 0
-6639 93 0
6639 -82 -93 0
-6640 83 0
-6640 92 0
6640 -83 -92 0
-6641 84 0
-6641 91 0
6641 -84 -91 0
1 -6593 0
-6593 -6594 0
-6642 -6593 0
-6642 -6594 0
6642 6593 6594 0
6642 -6595 0
-6643 6642 0
-6643 -6595 0
6643 -6642 6595 0
6643 -6596 0
-6644 6643 0
-6644 -6596 0
6644 -6643 6596 0
6644 -6597 0
-6645 6644 0
-6645 -6597 0
6645 -6644 6597 0
6645 -6598 0
-6646 6645 0
-6646 -6598 0
6646 -6645 6598 0
6646 -6599 0
-6647 6646 0
-6647 -6599 0
6647 -6646 6599 0
6647 -6600 0
-6648 6647 0
-6648 -6600 0
6648 -6647 6600 0
6648 -6601 0
-6649 6648 0
-6649 -6601 0
6649 -6648 6601 0
6649 -6602 0
-6650 6649 0
-6650 -6602 0
6650 -6649 6602 0
6650 -6603 0
-6651 6650 0
-6651 -6603 0
6651 -6650 6603 0
6651 -6604 0
-6652 6651 0
-6652 -6604 0
6652 -6651 6604 0
6652 -6605 0
-6653 6652 0
-6653 -6605 0
6653 -6652 6605 0
6653 -6606 0
-6654 6653 0
-6654 -6606 0
6654 -6653 6606 0
6654 -6607 0
-6655 6654 0
-6655 -6607 0
6655 -6654 6607 0
6655 -6608 0
-6656 6655 0
-6656 -6608 0
6656 -6655 6608 0
6656 -6609 0
-6657 6656 0
-6657 -6609 0
6657 -6656 6609 0
6657 -6610 0
-6658 6657 0
-6658 -6610 0
6658 -6657 6610 0
6658 -6611 0
-6659 6658 0
-6659 -6611 0
6659 -6658 6611 0
6659 -6612 0
-6660 6659 0
-6660 -6612 0
6660 -6659 6612 0
6660 -6613 0
-6661 6660 0
-6661 -6613 0
6661 -6660 6613 0
6661 -6405 0
-6662 6661 0
-6662 -6405 0
6662 -6661 6405 0
6662 -6174 0
-6663 6662 0
-6663 -6174 0
6663 -6662 6174 0
6663 -5935 0
-6664 6663 0
-6664 -5935 0
6664 -6663 5935 0
6664 -6614 0
-6665 6664 0
-6665 -6614 0
6665 -6664 6614 0
6665 -6615 0
-6666 6665 0
-6666 -6615 0
6666 -6665 6615 0
6666 -6616 0
-6667 6666 0
-6667 -6616 0
6667 -6666 6616 0
6667 -6617 0
-6668 6667 0
-6668 -6617 0
6668 -6667 6617 0
6668 -6618 0
-6669 6668 0
-6669 -6618 0
6669 -6668 6618 0
6669 -6619 0
-6670 6669 0
-6670 -6619 0
6670 -6669 6619 0
6670 -6620 0
-6671 6670 0
-6671 -6620 0
6671 -6670 6620 0
6671 -6510 0
-6672 6671 0
-6672 -6510 0
6672 -6671 6510 0
6672 -6282 0
-6673 6672 0
-6673 -6282 0
6673 -6672 6282 0
6673 -6046 0
-6674 6673 0
-6674 -6046 0
6674 -6673 6046 0
6674 -6621 0
-6675 6674 0
-6675 -6621 0
6675 -6674 6621 0
6675 -6622 0
-6676 6675 0
-6676 -6622 0
6676 -6675 6622 0
6676 -6623 0
-6677 6676 0
-6677 -6623 0
6677 -6676 6623 0
6677 -6624 0
-6678 6677 0
-6678 -6624 0
6678 -6677 6624 0
6678 -6625 0
-6679 6678 0
-6679 -6625 0
6679 -6678 6625 0
6679 -6626 0
-6680 6679 0
-6680 -6626 0
6680 -6679 6626 0
6680 -6627 0
-6681 6680 0
-6681 -6627 0
6681 -6680 6627 0
6681 -6628 0
-6682 6681 0
-6682 -6628 0
6682 -6681 6628 0
6682 -6629 0
-6683 6682 0
-6683 -6629 0
6683 -6682 6629 0
6683 -6630 0
-6684 6683 0
-6684 -6630 0
6684 -6683 6630 0
6684 -5940 0
-6685 6684 0
-6685 -5940 0
6685 -6684 5940 0
6685 -6178 0
-6686 6685 0
-6686 -6178 0
6686 -6685 6178 0
6686 -6408 0
-6687 6686 0
-6687 -6408 0
6687 -6686 6408 0
6687 -6631 0
-6688 6687 0
-6688 -6631 0
6688 -6687 6631 0
6688 -6632 0
-6689 6688 0
-6689 -6632 0
6689 -6688 6632 0
6689 -6633 0
-6690 6689 0
-6690 -6633 0
6690 -6689 6633 0
6690 -6634 0
-6691 6690 0
-6691 -6634 0
6691 -6690 6634 0
6691 -6635 0
-6692 6691 0
-6692 -6635 0
6692 -6691 6635 0
6692 -6636 0
-6693 6692 0
-6693 -6636 0
6693 -6692 6636 0
6693 -6637 0
-6694 6693 0
-6694 -6637 0
6694 -6693 6637 0
6694 -6070 0
-6695 6694 0
-6695 -6070 0
6695 -6694 6070 0
6695 -6303 0
-6696 6695 0
-6696 -6303 0
6696 -6695 6303 0
6696 -6528 0
-6697 6696 0
-6697 -6528 0
6697 -6696 6528 0
6697 -6638 0
-6698 6697 0
-6698 -6638 0
6698 -6697 6638 0
6698 -6639 0
-6699 6698 0
-6699 -6639 0
6699 -6698 6639 0
6699 -6640 0
-6700 6699 0
-6700 -6640 0
6700 -6699 6640 0
6700 -6641 0
-6701 6700 0
-6701 -6641 0
6701 -6700 6641 0
-6702 12 0
-6702 40 0
6702 -12 -40 0
-6703 32 0
-6703 39 0
6703 -32 -39 0
-6704 31 0
-6704 38 0
6704 -31 -38 0
-6705 30 0
-6705 37 0
6705 -30 -37 0
-6706 29 0
-6706 36 0
6706 -29 -36 0
-6707 28 0
-6707 35 0
6707 -28 -35 0
-6708 27 0
-6708 34 0
6708 -27 -34 0
-6709 26 0
-6709 33 0
6709 -26 -33 0
-6710 25 0
-6710 53 0
6710 -25 -53 0
-6711 24 0
-6711 52 0
6711 -24 -52 0
-6712 23 0
-6712 51 0
6712 -23 -51 0
-6713 22 0
-6713 50 0
6713 -22 -50 0
-6714 21 0
-6714 49 0
6714 -21 -49 0
-6715 20 0
-6715 48 0
6715 -20 -48 0
-6716 19 0
-6716 47 0
6716 -19 -47 0
-6717 18 0
-6717 46 0
6717 -18 -46 0
-6718 17 0
-6718 45 0
6718 -17 -45 0
-6719 16 0
-6719 44 0
6719 -16 -44 0
-6720 15 0
-6720 43 0
6720 -15 -43 0
-6721 14 0
-6721 42 0
6721 -14 -42 0
-6722 13 0
-6722 41 0
6722 -13 -41 0
-6723 57 0
-6723 67 0
6723 -57 -67 0
-6724 58 0
-6724 66 0
6724 -58 -66 0
-6725 59 0
-6725 65 0
6725 -59 -65 0
-6726 60 0
-6726 64 0
6726 -60 -64 0
-6727 61 0
-6727 84 0
6727 -61 -84 0
-6728 62 0
-6728 83 0
6728 -62 -83 0
-6729 63 0
-6729 82 0
6729 -63 -82 0
-6730 59 0
-6730 77 0
6730 -59 -77 0
-6731 58 0
-6731 76 0
6731 -58 -76 0
-6732 57 0
-6732 75 0
6732 -57 -75 0
-6733 56 0
-6733 74 0
6733 -56 -74 0
-6734 55 0
-6734 73 0
6734 -55 -73 0
-6735 54 0
-6735 72 0
6735 -54 -72 0
-6736 64 0
-6736 91 0
6736 -64 -91 0
-6737 65 0
-6737 90 0
6737 -65 -90 0
-6738 66 0
-6738 89 0
6738 -66 -89 0
-6739 67 0
-6739 88 0
6739 -67 -88 0
-6740 72 0
-6740 85 0
6740 -72 -85 0
-6741 73 0
-6741 86 0
6741 -73 -86 0
-6742 74 0
-6742 87 0
6742 -74 -87 0
-6743 75 0
-6743 88 0
6743 -75 -88 0
-6744 76 0
-6744 89 0
6744 -76 -89 0
-6745 77 0
-6745 90 0
6745 -77 -90 0
-6746 82 0
-6746 94 0
6746 -82 -94 0
-6747 83 0
-6747 93 0
6747 -83 -93 0
-6748 84 0
-6748 92 0
6748 -84 -92 0
1 -6702 0
-6702 -6703 0
-6749 -6702 0
-6749 -6703 0
6749 6702 6703 0
6749 -6704 0
-6750 6749 0
-6750 -6704 0
6750 -6749 6704 0
6750 -6705 0
-6751 6750 0
-6751 -6705 0
6751 -6750 6705 0
6751 -6706 0
-6752 6751 0
-6752 -6706 0
6752 -6751 6706 0
6752 -6707 0
-6753 6752 0
-6753 -6707 0
6753 -6752 6707 0
6753 -6708 0
-6754 6753 0
-6754 -6708 0
6754 -6753 6708 0
6754 -6709 0
-6755 6754 0
-6755 -6709 0
6755 -6754 6709 0
6755 -6710 0
-6756 6755 0
-6756 -6710 0
6756 -6755 6710 0
6756 -6711 0
-6757 6756 0
-6757 -6711 0
6757 -6756 6711 0
6757 -6712 0
-6758 6757 0
-6758 -6712 0
6758 -6757 6712 0
6758 -6713 0
-6759 6758 0
-6759 -6713 0
6759 -6758 6713 0
6759 -6714 0
-6760 6759 0
-6760 -6714 0
6760 -6759 6714 0
6760 -6715 0
-6761 6760 0
-6761 -6715 0
6761 -6760 6715 0
6761 -6716 0
-6762 6761 0
-6762 -6716 0
6762 -6761 6716 0
6762 -6717 0
-6763 6762 0
-6763 -6717 0
6763 -6762 6717 0
6763 -6718 0
-6764 6763 0
-6764 -6718 0
6764 -6763 6718 0
6764 -6719 0
-6765 6764 0
-6765 -6719 0
6765 -6764 6719 0
6765 -6720 0
-6766 6765 0
-6766 -6720 0
6766 -6765 6720 0
6766 -6721 0
-6767 6766 0
-6767 -6721 0
6767 -6766 6721 0
6767 -6722 0
-6768 6767 0
-6768 -6722 0
6768 -6767 6722 0
6768 -6517 0
-6769 6768 0
-6769 -6517 0
6769 -6768 6517 0
6769 -6290 0
-6770 6769 0
-6770 -6290 0
6770 -6769 6290 0
6770 -6055 0
-6771 6770 0
-6771 -6055 0
6771 -6770 6055 0
6771 -6723 0
-6772 6771 0
-6772 -6723 0
6772 -6771 6723 0
6772 -6724 0
-6773 6772 0
-6773 -6724 0
6773 -6772 6724 0
6773 -6725 0
-6774 6773 0
-6774 -6725 0
6774 -6773 6725 0
6774 -6726 0
-6775 6774 0
-6775 -6726 0
6775 -6774 6726 0
6775 -6727 0
-6776 6775 0
-6776 -6727 0
6776 -6775 6727 0
6776 -6728 0
-6777 6776 0
-6777 -6728 0
6777 -6776 6728 0
6777 -6729 0
-6778 6777 0
-6778 -6729 0
6778 -6777 6729 0
6778 -6620 0
-6779 6778 0
-6779 -6620 0
6779 -6778 6620 0
6779 -6396 0
-6780 6779 0
-6780 -6396 0
6780 -6779 6396 0
6780 -6164 0
-6781 6780 0
-6781 -6164 0
6781 -6780 6164 0
6781 -5924 0
-6782 6781 0
-6782 -5924 0
6782 -6781 5924 0
6782 -6730 0
-6783 6782 0
-6783 -6730 0
6783 -6782 6730 0
6783 -6731 0
-6784 6783 0
-6784 -6731 0
6784 -6783 6731 0
6784 -6732 0
-6785 6784 0
-6785 -6732 0
6785 -6784 6732 0
6785 -6733 0
-6786 6785 0
-6786 -6733 0
6786 -6785 6733 0
6786 -6734 0
-6787 6786 0
-6787 -6734 0
6787 -6786 6734 0
6787 -6735 0
-6788 6787 0
-6788 -6735 0
6788 -6787 6735 0
6788 -6736 0
-6789 6788 0
-6789 -6736 0
6789 -6788 6736 0
6789 -6737 0
-6790 6789 0
-6790 -6737 0
6790 -6789 6737 0
6790 -6738 0
-6791 6790 0
-6791 -6738 0
6791 -6790 6738 0
6791 -6739 0
-6792 6791 0
-6792 -6739 0
6792 -6791 6739 0
6792 -6061 0
-6793 6792 0
-6793 -6061 0
6793 -6792 6061 0
6793 -6295 0
-6794 6793 0
-6794 -6295 0
6794 -6793 6295 0
6794 -6521 0
-6795 6794 0
-6795 -6521 0
6795 -6794 6521 0
6795 -6740 0
-6796 6795 0
-6796 -6740 0
6796 -6795 6740 0
6796 -6741 0
-6797 6796 0
-6797 -6741 0
6797 -6796 6741 0
6797 -6742 0
-6798 6797 0
-6798 -6742 0
6798 -6797 6742 0
6798 -6743 0
-6799 6798 0
-6799 -6743 0
6799 -6798 6743 0
6799 -6744 0
-6800 6799 0
-6800 -6744 0
6800 -6799 6744 0
6800 -6745 0
-6801 6800 0
-6801 -6745 0
6801 -6800 6745 0
6801 -5951 0
-6802 6801 0
-6802 -5951 0
6802 -6801 5951 0
6802 -6188 0
-6803 6802 0
-6803 -6188 0
6803 -6802 6188 0
6803 -6417 0
-6804 6803 0
-6804 -6417 0
6804 -6803 6417 0
6804 -6638 0
-6805 6804 0
-6805 -6638 0
6805 -6804 6638 0
6805 -6746 0
-6806 6805 0
-6806 -6746 0
6806 -6805 6746 0
6806 -6747 0
-6807 6806 0
-6807 -6747 0
6807 -6806 6747 0
6807 -6748 0
-6808 6807 0
-6808 -6748 0
6808 -6807 6748 0
-6809 12 0
-6809 41 0
6809 -12 -41 0
-6810 32 0
-6810 40 0
6810 -32 -40 0
-6811 31 0
-6811 39 0
6811 -31 -39 0
-6812 30 0
-6812 38 0
6812 -30 -38 0
-6813 29 0
-6813 37 0
6813 -29 -37 0
-6814 28 0
-6814 36 0
6814 -28 -36 0
-6815 27 0
-6815 35 0
6815 -27 -35 0
-6816 26 0
-6816 34 0
6816 -26 -34 0
-6817 25 0
-6817 33 0
6817 -25 -33 0
-6818 24 0
-6818 53 0
6818 -24 -53 0
-6819 23 0
-6819 52 0
6819 -23 -52 0
-6820 22 0
-6820 51 0
6820 -22 -51 0
-6821 21 0
-6821 50 0
6821 -21 -50 0
-6822 20 0
-6822 49 0
6822 -20 -49 0
-6823 19 0
-6823 48 0
6823 -19 -48 0
-6824 18 0
-6824 47 0
6824 -18 -47 0
-6825 17 0
-6825 46 0
6825 -17 -46 0
-6826 16 0
-6826 45 0
6826 -16 -45 0
-6827 15 0
-6827 44 0
6827 -15 -44 0
-6828 14 0
-6828 43 0
6828 -14 -43 0
-6829 13 0
-6829 42 0
6829 -13 -42 0
-6830 58 0
-6830 67 0
6830 -58 -67 0
-6831 59 0
-6831 66 0
6831 -59 -66 0
-6832 60 0
-6832 65 0
6832 -60 -65 0
-6833 61 0
-6833 64 0
6833 -61 -64 0
-6834 62 0
-6834 84 0
6834 -62 -84 0
-6835 63 0
-6835 83 0
6835 -63 -83 0
-6836 59 0
-6836 78 0
6836 -59 -78 0
-6837 58 0
-6837 77 0
6837 -58 -77 0
-6838 57 0
-6838 76 0
6838 -57 -76 0
-6839 56 0
-6839 75 0
6839 -56 -75 0
-6840 55 0
-6840 74 0
6840 -55 -74 0
-6841 54 0
-6841 73 0
6841 -54 -73 0
-6842 64 0
-6842 92 0
6842 -64 -92 0
-6843 65 0
-6843 91 0
6843 -65 -91 0
-6844 66 0
-6844 90 0
6844 -66 -90 0
-6845 67 0
-6845 89 0
6845 -67 -89 0
-6846 73 0
-6846 85 0
6846 -73 -85 0
-6847 74 0
-6847 86 0
6847 -74 -86 0
-6848 75 0
-6848 87 0
6848 -75 -87 0
-6849 76 0
-6849 88 0
6849 -76 -88 0
-6850 77 0
-6850 89 0
6850 -77 -89 0
-6851 78 0
-6851 90 0
6851 -78 -90 0
-6852 83 0
-6852 94 0
6852 -83 -94 0
-6853 84 0
-6853 93 0
6853 -84 -93 0
1 -6809 0
-6809 -6810 0
-6854 -6809 0
-6854 -6810 0
6854 6809 6810 0
6854 -6811 0
-6855 6854 0
-6855 -6811 0
6855 -6854 6811 0
6855 -6812 0
-6856 6855 0
-6856 -6812 0
6856 -6855 6812 0
6856 -6813 0
-6857 6856 0
-6857 -6813 0
6857 -6856 6813 0
6857 -6814 0
-6858 6857 0
-6858 -6814 0
6858 -6857 6814 0
6858 -6815 0
-6859 6858 0
-6859 -6815 0
6859 -6858 6815 0
6859 -6816 0
-6860 6859 0
-6860 -6816 0
6860 -6859 6816 0
6860 -6817 0
-6861 6860 0
-6861 -6817 0
6861 -6860 6817 0
6861 -6818 0
-6862 6861 0
-6862 -6818 0
6862 -6861 6818 0
6862 -6819 0
-6863 6862 0
-6863 -6819 0
6863 -6862 6819 0
6863 -6820 0
-6864 6863 0
-6864 -6820 0
6864 -6863 6820 0
6864 -6821 0
-6865 6864 0
-6865 -6821 0
6865 -6864 6821 0
6865 -6822 0
-6866 6865 0
-6866 -6822 0
6866 -6865 6822 0
6866 -6823 0
-6867 6866 0
-6867 -6823 0
6867 -6866 6823 0
6867 -6824 0
-6868 6867 0
-6868 -6824 0
6868 -6867 6824 0
6868 -6825 0
-6869 6868 0
-6869 -6825 0
6869 -6868 6825 0
6869 -6826 0
-6870 6869 0
-6870 -6826 0
6870 -6869 6826 0
6870 -6827 0
-6871 6870 0
-6871 -6827 0
6871 -6870 6827 0
6871 -6828 0
-6872 6871 0
-6872 -6828 0
6872 -6871 6828 0
6872 -6829 0
-6873 6872 0
-6873 -6829 0
6873 -6872 6829 0
6873 -6627 0
-6874 6873 0
-6874 -6627 0
6874 -6873 6627 0
6874 -6404 0
-6875 6874 0
-6875 -6404 0
6875 -6874 6404 0
6875 -6173 0
-6876 6875 0
-6876 -6173 0
6876 -6875 6173 0
6876 -5934 0
-6877 6876 0
-6877 -5934 0
6877 -6876 5934 0
6877 -6830 0
-6878 6877 0
-6878 -6830 0
6878 -6877 6830 0
6878 -6831 0
-6879 6878 0
-6879 -6831 0
6879 -6878 6831 0
6879 -6832 0
-6880 6879 0
-6880 -6832 0
6880 -6879 6832 0
6880 -6833 0
-6881 6880 0
-6881 -6833 0
6881 -6880 6833 0
6881 -6834 0
-6882 6881 0
-6882 -6834 0
6882 -6881 6834 0
6882 -6835 0
-6883 6882 0
-6883 -6835 0
6883 -6882 6835 0
6883 -6729 0
-6884 6883 0
-6884 -6729 0
6884 -6883 6729 0
6884 -6509 0
-6885 6884 0
-6885 -6509 0
6885 -6884 6509 0
6885 -6281 0
-6886 6885 0
-6886 -6281 0
6886 -6885 6281 0
6886 -6045 0
-6887 6886 0
-6887 -6045 0
6887 -6886 6045 0
6887 -6836 0
-6888 6887 0
-6888 -6836 0
6888 -6887 6836 0
6888 -6837 0
-6889 6888 0
-6889 -6837 0
6889 -6888 6837 0
6889 -6838 0
-6890 6889 0
-6890 -6838 0
6890 -6889 6838 0
6890 -6839 0
-6891 6890 0
-6891 -6839 0
6891 -6890 6839 0
6891 -6840 0
-6892 6891 0
-6892 -6840 0
6892 -6891 6840 0
6892 -6841 0
-6893 6892 0
-6893 -6841 0
6893 -6892 6841 0
6893 -6842 0
-6894 6893 0
-6894 -6842 0
6894 -6893 6842 0
6894 -6843 0
-6895 6894 0
-6895 -6843 0
6895 -6894 6843 0
6895 -6844 0
-6896 6895 0
-6896 -6844 0
6896 -6895 6844 0
6896 -6845 0
-6897 6896 0
-6897 -6845 0
6897 -6896 6845 0
6897 -5941 0
-6898 6897 0
-6898 -5941 0
6898 -6897 5941 0
6898 -6179 0
-6899 6898 0
-6899 -6179 0
6899 -6898 6179 0
6899 -6409 0
-6900 6899 0
-6900 -6409 0
6900 -6899 6409 0
6900 -6631 0
-6901 6900 0
-6901 -6631 0
6901 -6900 6631 0
6901 -6846 0
-6902 6901 0
-6902 -6846 0
6902 -6901 6846 0
6902 -6847 0
-6903 6902 0
-6903 -6847 0
6903 -6902 6847 0
6903 -6848 0
-6904 6903 0
-6904 -6848 0
6904 -6903 6848 0
6904 -6849 0
-6905 6904 0
-6905 -6849 0
6905 -6904 6849 0
6905 -6850 0
-6906 6905 0
-6906 -6850 0
6906 -6905 6850 0
6906 -6851 0
-6907 6906 0
-6907 -6851 0
6907 -6906 6851 0
6907 -6071 0
-6908 6907 0
-6908 -6071 0
6908 -6907 6071 0
6908 -6304 0
-6909 6908 0
-6909 -6304 0
6909 -6908 6304 0
6909 -6529 0
-6910 6909 0
-6910 -6529 0
6910 -6909 6529 0
6910 -6746 0
-6911 6910 0
-6911 -6746 0
6911 -6910 6746 0
6911 -6852 0
-6912 6911 0
-6912 -6852 0
6912 -6911 6852 0
6912 -6853 0
-6913 6912 0
-6913 -6853 0
6913 -6912 6853 0
-6914 12 0
-6914 42 0
6914 -12 -42 0
-6915 32 0
-6915 41 0
6915 -32 -41 0
-6916 31 0
-6916 40 0
6916 -31 -40 0
-6917 30 0
-6917 39 0
6917 -30 -39 0
-6918 29 0
-6918 38 0
6918 -29 -38 0
-6919 28 0
-6919 37 0
6919 -28 -37 0
-6920 27 0
-6920 36 0
6920 -27 -36 0
-6921 26 0
-6921 35 0
6921 -26 -35 0
-6922 25 0
-6922 34 0
6922 -25 -34 0
-6923 24 0
-6923 33 0
6923 -24 -33 0
-6924 23 0
-6924 53 0
6924 -23 -53 0
-6925 22 0
-6925 52 0
6925 -22 -52 0
-6926 21 0
-6926 51 0
6926 -21 -51 0
-6927 20 0
-6927 50 0
6927 -20 -50 0
-6928 19 0
-6928 49 0
6928 -19 -49 0
-6929 18 0
-6929 48 0
6929 -18 -48 0
-6930 17 0
-6930 47 0
6930 -17 -47 0
-6931 16 0
-6931 46 0
6931 -16 -46 0
-6932 15 0
-6932 45 0
6932 -15 -45 0
-6933 14 0
-6933 44 0
6933 -14 -44 0
-6934 13 0
-6934 43 0
6934 -13 -43 0
-6935 58 0
-6935 68 0
6935 -58 -68 0
-6936 59 0
-6936 67 0
6936 -59 -67 0
-6937 60 0
-6937 66 0
6937 -60 -66 0
-6938 61 0
-6938 65 0
6938 -61 -65 0
-6939 62 0
-6939 64 0
6939 -62 -64 0
-6940 63 0
-6940 84 0
6940 -63 -84 0
-6941 58 0
-6941 78 0
6941 -58 -78 0
-6942 57 0
-6942 77 0
6942 -57 -77 0
-6943 56 0
-6943 76 0
6943 -56 -76 0
-6944 55 0
-6944 75 0
6944 -55 -75 0
-6945 54 0
-6945 74 0
6945 -54 -74 0
-6946 64 0
-6946 93 0
6946 -64 -93 0
-6947 65 0
-6947 92 0
6947 -65 -92 0
-6948 66 0
-6948 91 0
6948 -66 -91 0
-6949 67 0
-6949 90 0
6949 -67 -90 0
-6950 68 0
-6950 89 0
6950 -68 -89 0
-6951 74 0
-6951 85 0
6951 -74 -85 0
-6952 75 0
-6952 86 0
6952 -75 -86 0
-6953 76 0
-6953 87 0
6953 -76 -87 0
-6954 77 0
-6954 88 0
6954 -77 -88 0
-6955 78 0
-6955 89 0
6955 -78 -89 0
-6956 84 0
-6956 94 0
6956 -84 -94 0
1 -6914 0
-6914 -6915 0
-6957 -6914 0
-6957 -6915 0
6957 6914 6915 0
6957 -6916 0
-6958 6957 0
-6958 -6916 0
6958 -6957 6916 0
6958 -6917 0
-6959 6958 0
-6959 -6917 0
6959 -6958 6917 0
6959 -6918 0
-6960 6959 0
-6960 -6918 0
6960 -6959 6918 0
6960 -6919 0
-6961 6960 0
-6961 -6919 0
6961 -6960 6919 0
6961 -6920 0
-6962 6961 0
-6962 -6920 0
6962 -6961 6920 0
6962 -6921 0
-6963 6962 0
-6963 -6921 0
6963 -6962 6921 0
6963 -6922 0
-6964 6963 0
-6964 -6922 0
6964 -6963 6922 0
6964 -6923 0
-6965 6964 0
-6965 -6923 0
6965 -6964 6923 0
6965 -6924 0
-6966 6965 0
-6966 -6924 0
6966 -6965 6924 0
6966 -6925 0
-6967 6966 0
-6967 -6925 0
6967 -6966 6925 0
6967 -6926 0
-6968 6967 0
-6968 -6926 0
6968 -6967 6926 0
6968 -6927 0
-6969 6968 0
-6969 -6927 0
6969 -6968 6927 0
6969 -6928 0
-6970 6969 0
-6970 -6928 0
6970 -6969 6928 0
6970 -6929 0
-6971 6970 0
-6971 -6929 0
6971 -6970 6929 0
6971 -6930 0
-6972 6971 0
-6972 -6930 0
6972 -6971 6930 0
6972 -6931 0
-6973 6972 0
-6973 -6931 0
6973 -6972 6931 0
6973 -6932 0
-6974 6973 0
-6974 -6932 0
6974 -6973 6932 0
6974 -6933 0
-6975 6974 0
-6975 -6933 0
6975 -6974 6933 0
6975 -6934 0
-6976 6975 0
-6976 -6934 0
6976 -6975 6934 0
6976 -6735 0
-6977 6976 0
-6977 -6735 0
6977 -6976 6735 0
6977 -6516 0
-6978 6977 0
-6978 -6516 0
6978 -6977 6516 0
6978 -6289 0
-6979 6978 0
-6979 -6289 0
6979 -6978 6289 0
6979 -6054 0
-6980 6979 0
-6980 -6054 0
6980 -6979 6054 0
6980 -6935 0
-6981 6980 0
-6981 -6935 0
6981 -6980 6935 0
6981 -6936 0
-6982 6981 0
-6982 -6936 0
6982 -6981 6936 0
6982 -6937 0
-6983 6982 0
-6983 -6937 0
6983 -6982 6937 0
6983 -6938 0
-6984 6983 0
-6984 -6938 0
6984 -6983 6938 0
6984 -6939 0
-6985 6984 0
-6985 -6939 0
6985 -6984 6939 0
6985 -6940 0
-6986 6985 0
-6986 -6940 0
6986 -6985 6940 0
6986 -6835 0
-6987 6986 0
-6987 -6835 0
6987 -6986 6835 0
6987 -6619 0
-6988 6987 0
-6988 -6619 0
6988 -6987 6619 0
6988 -6395 0
-6989 6988 0
-6989 -6395 0
6989 -6988 6395 0
6989 -6163 0
-6990 6989 0
-6990 -6163 0
6990 -6989 6163 0
6990 -5923 0
-6991 6990 0
-6991 -5923 0
6991 -6990 5923 0
6991 -6941 0
-6992 6991 0
-6992 -6941 0
6992 -6991 6941 0
6992 -6942 0
-6993 6992 0
-6993 -6942 0
6993 -6992 6942 0
6993 -6943 0
-6994 6993 0
-6994 -6943 0
6994 -6993 6943 0
6994 -6944 0
-6995 6994 0
-6995 -6944 0
6995 -6994 6944 0
6995 -6945 0
-6996 6995 0
-6996 -6945 0
6996 -6995 6945 0
6996 -6946 0
-6997 6996 0
-6997 -6946 0
6997 -6996 6946 0
6997 -6947 0
-6998 6997 0
-6998 -6947 0
6998 -6997 6947 0
6998 -6948 0
-6999 6998 0
-6999 -6948 0
6999 -6998 6948 0
6999 -6949 0
-7000 6999 0
-7000 -6949 0
7000 -6999 6949 0
7000 -6950 0
-7001 7000 0
-7001 -6950 0
7001 -7000 6950 0
7001 -6062 0
-7002 7001 0
-7002 -6062 0
7002 -7001 6062 0
7002 -6296 0
-7003 7002 0
-7003 -6296 0
7003 -7002 6296 0
7003 -6522 0
-7004 7003 0
-7004 -6522 0
7004 -7003 6522 0
7004 -6740 0
-7005 7004 0
-7005 -6740 0
7005 -7004 6740 0
7005 -6951 0
-7006 7005 0
-7006 -6951 0
7006 -7005 6951 0
7006 -6952 0
-7007 7006 0
-7007 -6952 0
7007 -7006 6952 0
7007 -6953 0
-7008 7007 0
-7008 -6953 0
7008 -7007 6953 0
7008 -6954 0
-7009 7008 0
-7009 -6954 0
7009 -7008 6954 0
7009 -6955 0
-7010 7009 0
-7010 -6955 0
7010 -7009 6955 0
7010 -5952 0
-7011 7010 0
-7011 -5952 0
7011 -7010 5952 0
7011 -6189 0
-7012 7011 0
-7012 -6189 0
7012 -7011 6189 0
7012 -6418 0
-7013 7012 0
-7013 -6418 0
7013 -7012 6418 0
7013 -6639 0
-7014 7013 0
-7014 -6639 0
7014 -7013 6639 0
7014 -6852 0
-7015 7014 0
-7015 -6852 0
7015 -7014 6852 0
7015 -6956 0
-7016 7015 0
-7016 -6956 0
7016 -7015 6956 0
-7017 12 0
-7017 43 0
7017 -12 -43 0
-7018 32 0
-7018 42 0
7018 -32 -42 0
-7019 31 0
-7019 41 0
7019 -31 -41 0
-7020 30 0
-7020 40 0
7020 -30 -40 0
-7021 29 0
-7021 39 0
7021 -29 -39 0
-7022 28 0
-7022 38 0
7022 -28 -38 0
-7023 27 0
-7023 37 0
7023 -27 -37 0
-7024 26 0
-7024 36 0
7024 -26 -36 0
-7025 25 0
-7025 35 0
7025 -25 -35 0
-7026 24 0
-7026 34 0
7026 -24 -34 0
-7027 23 0
-7027 33 0
7027 -23 -33 0
-7028 22 0
-7028 53 0
7028 -22 -53 0
-7029 21 0
-7029 52 0
7029 -21 -52 0
-7030 20 0
-7030 51 0
7030 -20 -51 0
-7031 19 0
-7031 50 0
7031 -19 -50 0
-7032 18 0
-7032 49 0
7032 -18 -49 0
-7033 17 0
-7033 48 0
7033 -17 -48 0
-7034 16 0
-7034 47 0
7034 -16 -47 0
-7035 15 0
-7035 46 0
7035 -15 -46 0
-7036 14 0
-7036 45 0
7036 -14 -45 0
-7037 13 0
-7037 44 0
7037 -13 -44 0
-7038 59 0
-7038 68 0
7038 -59 -68 0
-7039 60 0
-7039 67 0
7039 -60 -67 0
-7040 61 0
-7040 66 0
7040 -61 -66 0
-7041 62 0
-7041 65 0
7041 -62 -65 0
-7042 63 0
-7042 64 0
7042 -63 -64 0
-7043 58 0
-7043 79 0
7043 -58 -79 0
-7044 57 0
-7044 78 0
7044 -57 -78 0
-7045 56 0
-7045 77 0
7045 -56 -77 0
-7046 55 0
-7046 76 0
7046 -55 -76 0
-7047 54 0
-7047 75 0
7047 -54 -75 0
-7048 64 0
-7048 94 0
7048 -64 -94 0
-7049 65 0
-7049 93 0
7049 -65 -93 0
-7050 66 0
-7050 92 0
7050 -66 -92 0
-7051 67 0
-7051 91 0
7051 -67 -91 0
-7052 68 0
-7052 90 0
7052 -68 -90 0
-7053 75 0
-7053 85 0
7053 -75 -85 0
-7054 76 0
-7054 86 0
7054 -76 -86 0
-7055 77 0
-7055 87 0
7055 -77 -87 0
-7056 78 0
-7056 88 0
7056 -78 -88 0
-7057 79 0
-7057 89 0
7057 -79 -89 0
1 -7017 0
-7017 -7018 0
-7058 -7017 0
-7058 -7018 0
7058 7017 7018 0
7058 -7019 0
-7059 7058 0
-7059 -7019 0
7059 -7058 7019 0
7059 -7020 0
-7060 7059 0
-7060 -7020 0
7060 -7059 7020 0
7060 -7021 0
-7061 7060 0
-7061 -7021 0
7061 -7060 7021 0
7061 -7022 0
-7062 7061 0
-7062 -7022 0
7062 -7061 7022 0
7062 -7023 0
-7063 7062 0
-7063 -7023 0
7063 -7062 7023 0
7063 -7024 0
-7064 7063 0
-7064 -7024 0
7064 -7063 7024 0
7064 -7025 0
-7065 7064 0
-7065 -7025 0
7065 -7064 7025 0
7065 -7026 0
-7066 7065 0
-7066 -7026 0
7066 -7065 7026 0
7066 -7027 0
-7067 7066 0
-7067 -7027 0
7067 -7066 7027 0
7067 -7028 0
-7068 7067 0
-7068 -7028 0
7068 -7067 7028 0
7068 -7029 0
-7069 7068 0
-7069 -7029 0
7069 -7068 7029 0
7069 -7030 0
-7070 7069 0
-7070 -7030 0
7070 -7069 7030 0
7070 -7031 0
-7071 7070 0
-7071 -7031 0
7071 -7070 7031 0
7071 -7032 0
-7072 7071 0
-7072 -7032 0
7072 -7071 7032 0
7072 -7033 0
-7073 7072 0
-7073 -7033 0
7073 -7072 7033 0
7073 -7034 0
-7074 7073 0
-7074 -7034 0
7074 -7073 7034 0
7074 -7035 0
-7075 7074 0
-7075 -7035 0
7075 -7074 7035 0
7075 -7036 0
-7076 7075 0
-7076 -7036 0
7076 -7075 7036 0
7076 -7037 0
-7077 7076 0
-7077 -7037 0
7077 -7076 7037 0
7077 -6841 0
-7078 7077 0
-7078 -6841 0
7078 -7077 6841 0
7078 -6626 0
-7079 7078 0
-7079 -6626 0
7079 -7078 6626 0
7079 -6403 0
-7080 7079 0
-7080 -6403 0
7080 -7079 6403 0
7080 -6172 0
-7081 7080 0
-7081 -6172 0
7081 -7080 6172 0
7081 -5933 0
-7082 7081 0
-7082 -5933 0
7082 -7081 5933 0
7082 -7038 0
-7083 7082 0
-7083 -7038 0
7083 -7082 7038 0
7083 -7039 0
-7084 7083 0
-7084 -7039 0
7084 -7083 7039 0
7084 -7040 0
-7085 7084 0
-7085 -7040 0
7085 -7084 7040 0
7085 -7041 0
-7086 7085 0
-7086 -7041 0
7086 -7085 7041 0
7086 -7042 0
-7087 7086 0
-7087 -7042 0
7087 -7086 7042 0
7087 -6940 0
-7088 7087 0
-7088 -6940 0
7088 -7087 6940 0
7088 -6728 0
-7089 7088 0
-7089 -6728 0
7089 -7088 6728 0
7089 -6508 0
-7090 7089 0
-7090 -6508 0
7090 -7089 6508 0
7090 -6280 0
-7091 7090 0
-7091 -6280 0
7091 -7090 6280 0
7091 -6044 0
-7092 7091 0
-7092 -6044 0
7092 -7091 6044 0
7092 -7043 0
-7093 7092 0
-7093 -7043 0
7093 -7092 7043 0
7093 -7044 0
-7094 7093 0
-7094 -7044 0
7094 -7093 7044 0
7094 -7045 0
-7095 7094 0
-7095 -7045 0
7095 -7094 7045 0
7095 -7046 0
-7096 7095 0
-7096 -7046 0
7096 -7095 7046 0
7096 -7047 0
-7097 7096 0
-7097 -7047 0
7097 -7096 7047 0
7097 -7048 0
-7098 7097 0
-7098 -7048 0
7098 -7097 7048 0
7098 -7049 0
-7099 7098 0
-7099 -7049 0
7099 -7098 7049 0
7099 -7050 0
-7100 7099 0
-7100 -7050 0
7100 -7099 7050 0
7100 -7051 0
-7101 7100 0
-7101 -7051 0
7101 -7100 7051 0
7101 -7052 0
-7102 7101 0
-7102 -7052 0
7102 -7101 7052 0
7102 -5942 0
-7103 7102 0
-7103 -5942 0
7103 -7102 5942 0
7103 -6180 0
-7104 7103 0
-7104 -6180 0
7104 -7103 6180 0
7104 -6410 0
-7105 7104 0
-7105 -6410 0
7105 -7104 6410 0
7105 -6632 0
-7106 7105 0
-7106 -6632 0
7106 -7105 6632 0
7106 -6846 0
-7107 7106 0
-7107 -6846 0
7107 -7106 6846 0
7107 -7053 0
-7108 7107 0
-7108 -7053 0
7108 -7107 7053 0
7108 -7054 0
-7109 7108 0
-7109 -7054 0
7109 -7108 7054 0
7109 -7055 0
-7110 7109 0
-7110 -7055 0
7110 -7109 7055 0
7110 -7056 0
-7111 7110 0
-7111 -7056 0
7111 -7110 7056 0
7111 -7057 0
-7112 7111 0
-7112 -7057 0
7112 -7111 7057 0
7112 -6072 0
-7113 7112 0
-7113 -6072 0
7113 -7112 6072 0
7113 -6305 0
-7114 7113 0
-7114 -6305 0
7114 -7113 6305 0
7114 -6530 0
-7115 7114 0
-7115 -6530 0
7115 -7114 6530 0
7115 -6747 0
-7116 7115 0
-7116 -6747 0
7116 -7115 6747 0
7116 -6956 0
-7117 7116 0
-7117 -6956 0
7117 -7116 6956 0
-7118 12 0
-7118 44 0
7118 -12 -44 0
-7119 32 0
-7119 43 0
7119 -32 -43 0
-7120 31 0
-7120 42 0
7120 -31 -42 0
-7121 30 0
-7121 41 0
7121 -30 -41 0
-7122 29 0
-7122 40 0
7122 -29 -40 0
-7123 28 0
-7123 39 0
7123 -28 -39 0
-7124 27 0
-7124 38 0
7124 -27 -38 0
-7125 26 0
-7125 37 0
7125 -26 -37 0
-7126 25 0
-7126 36 0
7126 -25 -36 0
-7127 24 0
-7127 35 0
7127 -24 -35 0
-7128 23 0
-7128 34 0
7128 -23 -34 0
-7129 22 0
-7129 33 0
7129 -22 -33 0
-7130 21 0
-7130 53 0
7130 -21 -53 0
-7131 20 0
-7131 52 0
7131 -20 -52 0
-7132 19 0
-7132 51 0
7132 -19 -51 0
-7133 18 0
-7133 50 0
7133 -18 -50 0
-7134 17 0
-7134 49 0
7134 -17 -49 0
-7135 16 0
-7135 48 0
7135 -16 -48 0
-7136 15 0
-7136 47 0
7136 -15 -47 0
-7137 14 0
-7137 46 0
7137 -14 -46 0
-7138 13 0
-7138 45 0
7138 -13 -45 0
-7139 59 0
-7139 69 0
7139 -59 -69 0
-7140 60 0
-7140 68 0
7140 -60 -68 0
-7141 61 0
-7141 67 0
7141 -61 -67 0
-7142 62 0
-7142 66 0
7142 -62 -66 0
-7143 63 0
-7143 65 0
7143 -63 -65 0
-7144 57 0
-7144 79 0
7144 -57 -79 0
-7145 56 0
-7145 78 0
7145 -56 -78 0
-7146 55 0
-7146 77 0
7146 -55 -77 0
-7147 54 0
-7147 76 0
7147 -54 -76 0
-7148 65 0
-7148 94 0
7148 -65 -94 0
-7149 66 0
-7149 93 0
7149 -66 -93 0
-7150 67 0
-7150 92 0
7150 -67 -92 0
-7151 68 0
-7151 91 0
7151 -68 -91 0
-7152 69 0
-7152 90 0
7152 -69 -90 0
-7153 76 0
-7153 85 0
7153 -76 -85 0
-7154 77 0
-7154 86 0
7154 -77 -86 0
-7155 78 0
-7155 87 0
7155 -78 -87 0
-7156 79 0
-7156 88 0
7156 -79 -88 0
1 -7118 0
-7118 -7119 0
-7157 -7118 0
-7157 -7119 0
7157 7118 7119 0
7157 -7120 0
-7158 7157 0
-7158 -7120 0
7158 -7157 7120 0
7158 -7121 0
-7159 7158 0
-7159 -7121 0
7159 -7158 7121 0
7159 -7122 0
-7160 7159 0
-7160 -7122 0
7160 -7159 7122 0
7160 -7123 0
-7161 7160 0
-7161 -7123 0
7161 -7160 7123 0
7161 -7124 0
-7162 7161 0
-7162 -7124 0
7162 -7161 7124 0
7162 -7125 0
-7163 7162 0
-7163 -7125 0
7163 -7162 7125 0
7163 -7126 0
-7164 7163 0
-7164 -7126 0
7164 -7163 7126 0
7164 -7127 0
-7165 7164 0
-7165 -7127 0
7165 -7164 7127 0
7165 -7128 0
-7166 7165 0
-7166 -7128 0
7166 -7165 7128 0
7166 -7129 0
-7167 7166 0
-7167 -7129 0
7167 -7166 7129 0
7167 -7130 0
-7168 7167 0
-7168 -7130 0
7168 -7167 7130 0
7168 -7131 0
-7169 7168 0
-7169 -7131 0
7169 -7168 7131 0
7169 -7132 0
-7170 7169 0
-7170 -7132 0
7170 -7169 7132 0
7170 -7133 0
-7171 7170 0
-7171 -7133 0
7171 -7170 7133 0
7171 -7134 0
-7172 7171 0
-7172 -7134 0
7172 -7171 7134 0
7172 -7135 0
-7173 7172 0
-7173 -7135 0
7173 -7172 7135 0
7173 -7136 0
-7174 7173 0
-7174 -7136 0
7174 -7173 7136 0
7174 -7137 0
-7175 7174 0
-7175 -7137 0
7175 -7174 7137 0
7175 -7138 0
-7176 7175 0
-7176 -7138 0
7176 -7175 7138 0
7176 -6945 0
-7177 7176 0
-7177 -6945 0
7177 -7176 6945 0
7177 -6734 0
-7178 7177 0
-7178 -6734 0
7178 -7177 6734 0
7178 -6515 0
-7179 7178 0
-7179 -6515 0
7179 -7178 6515 0
7179 -6288 0
-7180 7179 0
-7180 -6288 0
7180 -7179 6288 0
7180 -6053 0
-7181 7180 0
-7181 -6053 0
7181 -7180 6053 0
7181 -7139 0
-7182 7181 0
-7182 -7139 0
7182 -7181 7139 0
7182 -7140 0
-7183 7182 0
-7183 -7140 0
7183 -7182 7140 0
7183 -7141 0
-7184 7183 0
-7184 -7141 0
7184 -7183 7141 0
7184 -7142 0
-7185 7184 0
-7185 -7142 0
7185 -7184 7142 0
7185 -7143 0
-7186 7185 0
-7186 -7143 0
7186 -7185 7143 0
7186 -7042 0
-7187 7186 0
-7187 -7042 0
7187 -7186 7042 0
7187 -6834 0
-7188 7187 0
-7188 -6834 0
7188 -7187 6834 0
7188 -6618 0
-7189 7188 0
-7189 -6618 0
7189 -7188 6618 0
7189 -6394 0
-7190 7189 0
-7190 -6394 0
7190 -7189 6394 0
7190 -6162 0
-7191 7190 0
-7191 -6162 0
7191 -7190 6162 0
7191 -5922 0
-7192 7191 0
-7192 -5922 0
7192 -7191 5922 0
7192 -7144 0
-7193 7192 0
-7193 -7144 0
7193 -7192 7144 0
7193 -7145 0
-7194 7193 0
-7194 -7145 0
7194 -7193 7145 0
7194 -7146 0
-7195 7194 0
-7195 -7146 0
7195 -7194 7146 0
7195 -7147 0
-7196 7195 0
-7196 -7147 0
7196 -7195 7147 0
7196 -7048 0
-7197 7196 0
-7197 -7048 0
7197 -7196 7048 0
7197 -7148 0
-7198 7197 0
-7198 -7148 0
7198 -7197 7148 0
7198 -7149 0
-7199 7198 0
-7199 -7149 0
7199 -7198 7149 0
7199 -7150 0
-7200 7199 0
-7200 -7150 0
7200 -7199 7150 0
7200 -7151 0
-7201 7200 0
-7201 -7151 0
7201 -7200 7151 0
7201 -7152 0
-7202 7201 0
-7202 -7152 0
7202 -7201 7152 0
7202 -6063 0
-7203 7202 0
-7203 -6063 0
7203 -7202 6063 0
7203 -6297 0
-7204 7203 0
-7204 -6297 0
7204 -7203 6297 0
7204 -6523 0
-7205 7204 0
-7205 -6523 0
7205 -7204 6523 0
7205 -6741 0
-7206 7205 0
-7206 -6741 0
7206 -7205 6741 0
7206 -6951 0
-7207 7206 0
-7207 -6951 0
7207 -7206 6951 0
7207 -7153 0
-7208 7207 0
-7208 -7153 0
7208 -7207 7153 0
7208 -7154 0
-7209 7208 0
-7209 -7154 0
7209 -7208 7154 0
7209 -7155 0
-7210 7209 0
-7210 -7155 0
7210 -7209 7155 0
7210 -7156 0
-7211 7210 0
-7211 -7156 0
7211 -7210 7156 0
7211 -5953 0
-7212 7211 0
-7212 -5953 0
7212 -7211 5953 0
7212 -6190 0
-7213 7212 0
-7213 -6190 0
7213 -7212 6190 0
7213 -6419 0
-7214 7213 0
-7214 -6419 0
7214 -7213 6419 0
7214 -6640 0
-7215 7214 0
-7215 -6640 0
7215 -7214 6640 0
7215 -6853 0
-7216 7215 0
-7216 -6853 0
7216 -7215 6853 0
-7217 12 0
-7217 45 0
7217 -12 -45 0
-7218 32 0
-7218 44 0
7218 -32 -44 0
-7219 31 0
-7219 43 0
7219 -31 -43 0
-7220 30 0
-7220 42 0
7220 -30 -42 0
-7221 29 0
-7221 41 0
7221 -29 -41 0
-7222 28 0
-7222 40 0
7222 -28 -40 0
-7223 27 0
-7223 39 0
7223 -27 -39 0
-7224 26 0
-7224 38 0
7224 -26 -38 0
-7225 25 0
-7225 37 0
7225 -25 -37 0
-7226 24 0
-7226 36 0
7226 -24 -36 0
-7227 23 0
-7227 35 0
7227 -23 -35 0
-7228 22 0
-7228 34 0
7228 -22 -34 0
-7229 21 0
-7229 33 0
7229 -21 -33 0
-7230 20 0
-7230 53 0
7230 -20 -53 0
-7231 19 0
-7231 52 0
7231 -19 -52 0
-7232 18 0
-7232 51 0
7232 -18 -51 0
-7233 17 0
-7233 50 0
7233 -17 -50 0
-7234 16 0
-7234 49 0
7234 -16 -49 0
-7235 15 0
-7235 48 0
7235 -15 -48 0
-7236 14 0
-7236 47 0
7236 -14 -47 0
-7237 13 0
-7237 46 0
7237 -13 -46 0
-7238 60 0
-7238 69 0
7238 -60 -69 0
-7239 61 0
-7239 68 0
7239 -61 -68 0
-7240 62 0
-7240 67 0
7240 -62 -67 0
-7241 63 0
-7241 66 0
7241 -63 -66 0
-7242 57 0
-7242 80 0
7242 -57 -80 0
-7243 56 0
-7243 79 0
7243 -56 -79 0
-7244 55 0
-7244 78 0
7244 -55 -78 0
-7245 54 0
-7245 77 0
7245 -54 -77 0
-7246 66 0
-7246 94 0
7246 -66 -94 0
-7247 67 0
-7247 93 0
7247 -67 -93 0
-7248 68 0
-7248 92 0
7248 -68 -92 0
-7249 69 0
-7249 91 0
7249 -69 -91 0
-7250 77 0
-7250 85 0
7250 -77 -85 0
-7251 78 0
-7251 86 0
7251 -78 -86 0
-7252 79 0
-7252 87 0
7252 -79 -87 0
-7253 80 0
-7253 88 0
7253 -80 -88 0
1 -7217 0
-7217 -7218 0
-7254 -7217 0
-7254 -7218 0
7254 7217 7218 0
7254 -7219 0
-7255 7254 0
-7255 -7219 0
7255 -7254 7219 0
7255 -7220 0
-7256 7255 0
-7256 -7220 0
7256 -7255 7220 0
7256 -7221 0
-7257 7256 0
-7257 -7221 0
7257 -7256 7221 0
7257 -7222 0
-7258 7257 0
-7258 -7222 0
7258 -7257 7222 0
7258 -7223 0
-7259 7258 0
-7259 -7223 0
7259 -7258 7223 0
7259 -7224 0
-7260 7259 0
-7260 -7224 0
7260 -7259 7224 0
7260 -7225 0
-7261 7260 0
-7261 -7225 0
7261 -7260 7225 0
7261 -7226 0
-7262 7261 0
-7262 -7226 0
7262 -7261 7226 0
7262 -7227 0
-7263 7262 0
-7263 -7227 0
7263 -7262 7227 0
7263 -7228 0
-7264 7263 0
-7264 -7228 0
7264 -7263 7228 0
7264 -7229 0
-7265 7264 0
-7265 -7229 0
7265 -7264 7229 0
7265 -7230 0
-7266 7265 0
-7266 -7230 0
7266 -7265 7230 0
7266 -7231 0
-7267 7266 0
-7267 -7231 0
7267 -7266 7231 0
7267 -7232 0
-7268 7267 0
-7268 -7232 0
7268 -7267 7232 0
7268 -7233 0
-7269 7268 0
-7269 -7233 0
7269 -7268 7233 0
7269 -7234 0
-7270 7269 0
-7270 -7234 0
7270 -7269 7234 0
7270 -7235 0
-7271 7270 0
-7271 -7235 0
7271 -7270 7235 0
7271 -7236 0
-7272 7271 0
-7272 -7236 0
7272 -7271 7236 0
7272 -7237 0
-7273 7272 0
-7273 -7237 0
7273 -7272 7237 0
7273 -7047 0
-7274 7273 0
-7274 -7047 0
7274 -7273 7047 0
7274 -6840 0
-7275 7274 0
-7275 -6840 0
7275 -7274 6840 0
7275 -6625 0
-7276 7275 0
-7276 -6625 0
7276 -7275 6625 0
7276 -6402 0
-7277 7276 0
-7277 -6402 0
7277 -7276 6402 0
7277 -6171 0
-7278 7277 0
-7278 -6171 0
7278 -7277 6171 0
7278 -5932 0
-7279 7278 0
-7279 -5932 0
7279 -7278 5932 0
7279 -7238 0
-7280 7279 0
-7280 -7238 0
7280 -7279 7238 0
7280 -7239 0
-7281 7280 0
-7281 -7239 0
7281 -7280 7239 0
7281 -7240 0
-7282 7281 0
-7282 -7240 0
7282 -7281 7240 0
7282 -7241 0
-7283 7282 0
-7283 -7241 0
7283 -7282 7241 0
7283 -7143 0
-7284 7283 0
-7284 -7143 0
7284 -7283 7143 0
7284 -6939 0
-7285 7284 0
-7285 -6939 0
7285 -7284 6939 0
7285 -6727 0
-7286 7285 0
-7286 -6727 0
7286 -7285 6727 0
7286 -6507 0
-7287 7286 0
-7287 -6507 0
7287 -7286 6507 0
7287 -6279 0
-7288 7287 0
-7288 -6279 0
7288 -7287 6279 0
7288 -6043 0
-7289 7288 0
-7289 -6043 0
7289 -7288 6043 0
7289 -7242 0
-7290 7289 0
-7290 -7242 0
7290 -7289 7242 0
7290 -7243 0
-7291 7290 0
-7291 -7243 0
7291 -7290 7243 0
7291 -7244 0
-7292 7291 0
-7292 -7244 0
7292 -7291 7244 0
7292 -7245 0
-7293 7292 0
-7293 -7245 0
7293 -7292 7245 0
7293 -6946 0
-7294 7293 0
-7294 -6946 0
7294 -7293 6946 0
7294 -7148 0
-7295 7294 0
-7295 -7148 0
7295 -7294 7148 0
7295 -7246 0
-7296 7295 0
-7296 -7246 0
7296 -7295 7246 0
7296 -7247 0
-7297 7296 0
-7297 -7247 0
7297 -7296 7247 0
7297 -7248 0
-7298 7297 0
-7298 -7248 0
7298 -7297 7248 0
7298 -7249 0
-7299 7298 0
-7299 -7249 0
7299 -7298 7249 0
7299 -5943 0
-7300 7299 0
-7300 -5943 0
7300 -7299 5943 0
7300 -6181 0
-7301 7300 0
-7301 -6181 0
7301 -7300 6181 0
7301 -6411 0
-7302 7301 0
-7302 -6411 0
7302 -7301 6411 0
7302 -6633 0
-7303 7302 0
-7303 -6633 0
7303 -7302 6633 0
7303 -6847 0
-7304 7303 0
-7304 -6847 0
7304 -7303 6847 0
7304 -7053 0
-7305 7304 0
-7305 -7053 0
7305 -7304 7053 0
7305 -7250 0
-7306 7305 0
-7306 -7250 0
7306 -7305 7250 0
7306 -7251 0
-7307 7306 0
-7307 -7251 0
7307 -7306 7251 0
7307 -7252 0
-7308 7307 0
-7308 -7252 0
7308 -7307 7252 0
7308 -7253 0
-7309 7308 0
-7309 -7253 0
7309 -7308 7253 0
7309 -6073 0
-7310 7309 0
-7310 -6073 0
7310 -7309 6073 0
7310 -6306 0
-7311 7310 0
-7311 -6306 0
7311 -7310 6306 0
7311 -6531 0
-7312 7311 0
-7312 -6531 0
7312 -7311 6531 0
7312 -6748 0
-7313 7312 0
-7313 -6748 0
7313 -7312 6748 0
-7314 12 0
-7314 46 0
7314 -12 -46 0
-7315 32 0
-7315 45 0
7315 -32 -45 0
-7316 31 0
-7316 44 0
7316 -31 -44 0
-7317 30 0
-7317 43 0
7317 -30 -43 0
-7318 29 0
-7318 42 0
7318 -29 -42 0
-7319 28 0
-7319 41 0
7319 -28 -41 0
-7320 27 0
-7320 40 0
7320 -27 -40 0
-7321 26 0
-7321 39 0
7321 -26 -39 0
-7322 25 0
-7322 38 0
7322 -25 -38 0
-7323 24 0
-7323 37 0
7323 -24 -37 0
-7324 23 0
-7324 36 0
7324 -23 -36 0
-7325 22 0
-7325 35 0
7325 -22 -35 0
-7326 21 0
-7326 34 0
7326 -21 -34 0
-7327 20 0
-7327 33 0
7327 -20 -33 0
-7328 19 0
-7328 53 0
7328 -19 -53 0
-7329 18 0
-7329 52 0
7329 -18 -52 0
-7330 17 0
-7330 51 0
7330 -17 -51 0
-7331 16 0
-7331 50 0
7331 -16 -50 0
-7332 15 0
-7332 49 0
7332 -15 -49 0
-7333 14 0
-7333 48 0
7333 -14 -48 0
-7334 13 0
-7334 47 0
7334 -13 -47 0
-7335 60 0
-7335 70 0
7335 -60 -70 0
-7336 61 0
-7336 69 0
7336 -61 -69 0
-7337 62 0
-7337 68 0
7337 -62 -68 0
-7338 63 0
-7338 67 0
7338 -63 -67 0
-7339 56 0
-7339 80 0
7339 -56 -80 0
-7340 55 0
-7340 79 0
7340 -55 -79 0
-7341 54 0
-7341 78 0
7341 -54 -78 0
-7342 67 0
-7342 94 0
7342 -67 -94 0
-7343 68 0
-7343 93 0
7343 -68 -93 0
-7344 69 0
-7344 92 0
7344 -69 -92 0
-7345 70 0
-7345 91 0
7345 -70 -91 0
-7346 78 0
-7346 85 0
7346 -78 -85 0
-7347 79 0
-7347 86 0
7347 -79 -86 0
-7348 80 0
-7348 87 0
7348 -80 -87 0
1 -7314 0
-7314 -7315 0
-7349 -7314 0
-7349 -7315 0
7349 7314 7315 0
7349 -7316 0
-7350 7349 0
-7350 -7316 0
7350 -7349 7316 0
7350 -7317 0
-7351 7350 0
-7351 -7317 0
7351 -7350 7317 0
7351 -7318 0
-7352 7351 0
-7352 -7318 0
7352 -7351 7318 0
7352 -7319 0
-7353 7352 0
-7353 -7319 0
7353 -7352 7319 0
7353 -7320 0
-7354 7353 0
-7354 -7320 0
7354 -7353 7320 0
7354 -7321 0
-7355 7354 0
-7355 -7321 0
7355 -7354 7321 0
7355 -7322 0
-7356 7355 0
-7356 -7322 0
7356 -7355 7322 0
7356 -7323 0
-7357 7356 0
-7357 -7323 0
7357 -7356 7323 0
7357 -7324 0
-7358 7357 0
-7358 -7324 0
7358 -7357 7324 0
7358 -7325 0
-7359 7358 0
-7359 -7325 0
7359 -7358 7325 0
7359 -7326 0
-7360 7359 0
-7360 -7326 0
7360 -7359 7326 0
7360 -7327 0
-7361 7360 0
-7361 -7327 0
7361 -7360 7327 0
7361 -7328 0
-7362 7361 0
-7362 -7328 0
7362 -7361 7328 0
7362 -7329 0
-7363 7362 0
-7363 -7329 0
7363 -7362 7329 0
7363 -7330 0
-7364 7363 0
-7364 -7330 0
7364 -7363 7330 0
7364 -7331 0
-7365 7364 0
-7365 -7331 0
7365 -7364 7331 0
7365 -7332 0
-7366 7365 0
-7366 -7332 0
7366 -7365 7332 0
7366 -7333 0
-7367 7366 0
-7367 -7333 0
7367 -7366 7333 0
7367 -7334 0
-7368 7367 0
-7368 -7334 0
7368 -7367 7334 0
7368 -7147 0
-7369 7368 0
-7369 -7147 0
7369 -7368 7147 0
7369 -6944 0
-7370 7369 0
-7370 -6944 0
7370 -7369 6944 0
7370 -6733 0
-7371 7370 0
-7371 -6733 0
7371 -7370 6733 0
7371 -6514 0
-7372 7371 0
-7372 -6514 0
7372 -7371 6514 0
7372 -6287 0
-7373 7372 0
-7373 -6287 0
7373 -7372 6287 0
7373 -6052 0
-7374 7373 0
-7374 -6052 0
7374 -7373 6052 0
7374 -7335 0
-7375 7374 0
-7375 -7335 0
7375 -7374 7335 0
7375 -7336 0
-7376 7375 0
-7376 -7336 0
7376 -7375 7336 0
7376 -7337 0
-7377 7376 0
-7377 -7337 0
7377 -7376 7337 0
7377 -7338 0
-7378 7377 0
-7378 -7338 0
7378 -7377 7338 0
7378 -7241 0
-7379 7378 0
-7379 -7241 0
7379 -7378 7241 0
7379 -7041 0
-7380 7379 0
-7380 -7041 0
7380 -7379 7041 0
7380 -6833 0
-7381 7380 0
-7381 -6833 0
7381 -7380 6833 0
7381 -6617 0
-7382 7381 0
-7382 -6617 0
7382 -7381 6617 0
7382 -6393 0
-7383 7382 0
-7383 -6393 0
7383 -7382 6393 0
7383 -6161 0
-7384 7383 0
-7384 -6161 0
7384 -7383 6161 0
7384 -5921 0
-7385 7384 0
-7385 -5921 0
7385 -7384 5921 0
7385 -7339 0
-7386 7385 0
-7386 -7339 0
7386 -7385 7339 0
7386 -7340 0
-7387 7386 0
-7387 -7340 0
7387 -7386 7340 0
7387 -7341 0
-7388 7387 0
-7388 -7341 0
7388 -7387 7341 0
7388 -6842 0
-7389 7388 0
-7389 -6842 0
7389 -7388 6842 0
7389 -7049 0
-7390 7389 0
-7390 -7049 0
7390 -7389 7049 0
7390 -7246 0
-7391 7390 0
-7391 -7246 0
7391 -7390 7246 0
7391 -7342 0
-7392 7391 0
-7392 -7342 0
7392 -7391 7342 0
7392 -7343 0
-7393 7392 0
-7393 -7343 0
7393 -7392 7343 0
7393 -7344 0
-7394 7393 0
-7394 -7344 0
7394 -7393 7344 0
7394 -7345 0
-7395 7394 0
-7395 -7345 0
7395 -7394 7345 0
7395 -6064 0
-7396 7395 0
-7396 -6064 0
7396 -7395 6064 0
7396 -6298 0
-7397 7396 0
-7397 -6298 0
7397 -7396 6298 0
7397 -6524 0
-7398 7397 0
-7398 -6524 0
7398 -7397 6524 0
7398 -6742 0
-7399 7398 0
-7399 -6742 0
7399 -7398 6742 0
7399 -6952 0
-7400 7399 0
-7400 -6952 0
7400 -7399 6952 0
7400 -7153 0
-7401 7400 0
-7401 -7153 0
7401 -7400 7153 0
7401 -7346 0
-7402 7401 0
-7402 -7346 0
7402 -7401 7346 0
7402 -7347 0
-7403 7402 0
-7403 -7347 0
7403 -7402 7347 0
7403 -7348 0
-7404 7403 0
-7404 -7348 0
7404 -7403 7348 0
7404 -5954 0
-7405 7404 0
-7405 -5954 0
7405 -7404 5954 0
7405 -6191 0
-7406 7405 0
-7406 -6191 0
7406 -7405 6191 0
7406 -6420 0
-7407 7406 0
-7407 -6420 0
7407 -7406 6420 0
7407 -6641 0
-7408 7407 0
-7408 -6641 0
7408 -7407 6641 0
-7409 12 0
-7409 47 0
7409 -12 -47 0
-7410 32 0
-7410 46 0
7410 -32 -46 0
-7411 31 0
-7411 45 0
7411 -31 -45 0
-7412 30 0
-7412 44 0
7412 -30 -44 0
-7413 29 0
-7413 43 0
7413 -29 -43 0
-7414 28 0
-7414 42 0
7414 -28 -42 0
-7415 27 0
-7415 41 0
7415 -27 -41 0
-7416 26 0
-7416 40 0
7416 -26 -40 0
-7417 25 0
-7417 39 0
7417 -25 -39 0
-7418 24 0
-7418 38 0
7418 -24 -38 0
-7419 23 0
-7419 37 0
7419 -23 -37 0
-7420 22 0
-7420 36 0
7420 -22 -36 0
-7421 21 0
-7421 35 0
7421 -21 -35 0
-7422 20 0
-7422 34 0
7422 -20 -34 0
-7423 19 0
-7423 33 0
7423 -19 -33 0
-7424 18 0
-7424 53 0
7424 -18 -53 0
-7425 17 0
-7425 52 0
7425 -17 -52 0
-7426 16 0
-7426 51 0
7426 -16 -51 0
-7427 15 0
-7427 50 0
7427 -15 -50 0
-7428 14 0
-7428 49 0
7428 -14 -49 0
-7429 13 0
-7429 48 0
7429 -13 -48 0
-7430 61 0
-7430 70 0
7430 -61 -70 0
-7431 62 0
-7431 69 0
7431 -62 -69 0
-7432 63 0
-7432 68 0
7432 -63 -68 0
-7433 56 0
-7433 81 0
7433 -56 -81 0
-7434 55 0
-7434 80 0
7434 -55 -80 0
-7435 54 0
-7435 79 0
7435 -54 -79 0
-7436 68 0
-7436 94 0
7436 -68 -94 0
-7437 69 0
-7437 93 0
7437 -69 -93 0
-7438 70 0
-7438 92 0
7438 -70 -92 0
-7439 79 0
-7439 85 0
7439 -79 -85 0
-7440 80 0
-7440 86 0
7440 -80 -86 0
-7441 81 0
-7441 87 0
7441 -81 -87 0
1 -7409 0
-7409 -7410 0
-7442 -7409 0
-7442 -7410 0
7442 7409 7410 0
7442 -7411 0
-7443 7442 0
-7443 -7411 0
7443 -7442 7411 0
7443 -7412 0
-7444 7443 0
-7444 -7412 0
7444 -7443 7412 0
7444 -7413 0
-7445 7444 0
-7445 -7413 0
7445 -7444 7413 0
7445 -7414 0
-7446 7445 0
-7446 -7414 0
7446 -7445 7414 0
7446 -7415 0
-7447 7446 0
-7447 -7415 0
7447 -7446 7415 0
7447 -7416 0
-7448 7447 0
-7448 -7416 0
7448 -7447 7416 0
7448 -7417 0
-7449 7448 0
-7449 -7417 0
7449 -7448 7417 0
7449 -7418 0
-7450 7449 0
-7450 -7418 0
7450 -7449 7418 0
7450 -7419 0
-7451 7450 0
-7451 -7419 0
7451 -7450 7419 0
7451 -7420 0
-7452 7451 0
-7452 -7420 0
7452 -7451 7420 0
7452 -7421 0
-7453 7452 0
-7453 -7421 0
7453 -7452 7421 0
7453 -7422 0
-7454 7453 0
-7454 -7422 0
7454 -7453 7422 0
7454 -7423 0
-7455 7454 0
-7455 -7423 0
7455 -7454 7423 0
7455 -7424 0
-7456 7455 0
-7456 -7424 0
7456 -7455 7424 0
7456 -7425 0
-7457 7456 0
-7457 -7425 0
7457 -7456 7425 0
7457 -7426 0
-7458 7457 0
-7458 -7426 0
7458 -7457 7426 0
7458 -7427 0
-7459 7458 0
-7459 -7427 0
7459 -7458 7427 0
7459 -7428 0
-7460 7459 0
-7460 -7428 0
7460 -7459 7428 0
7460 -7429 0
-7461 7460 0
-7461 -7429 0
7461 -7460 7429 0
7461 -7245 0
-7462 7461 0
-7462 -7245 0
7462 -7461 7245 0
7462 -7046 0
-7463 7462 0
-7463 -7046 0
7463 -7462 7046 0
7463 -6839 0
-7464 7463 0
-7464 -6839 0
7464 -7463 6839 0
7464 -6624 0
-7465 7464 0
-7465 -6624 0
7465 -7464 6624 0
7465 -6401 0
-7466 7465 0
-7466 -6401 0
7466 -7465 6401 0
7466 -6170 0
-7467 7466 0
-7467 -6170 0
7467 -7466 6170 0
7467 -5931 0
-7468 7467 0
-7468 -5931 0
7468 -7467 5931 0
7468 -7430 0
-7469 7468 0
-7469 -7430 0
7469 -7468 7430 0
7469 -7431 0
-7470 7469 0
-7470 -7431 0
7470 -7469 7431 0
7470 -7432 0
-7471 7470 0
-7471 -7432 0
7471 -7470 7432 0
7471 -7338 0
-7472 7471 0
-7472 -7338 0
7472 -7471 7338 0
7472 -7142 0
-7473 7472 0
-7473 -7142 0
7473 -7472 7142 0
7473 -6938 0
-7474 7473 0
-7474 -6938 0
7474 -7473 6938 0
7474 -6726 0
-7475 7474 0
-7475 -6726 0
7475 -7474 6726 0
7475 -6506 0
-7476 7475 0
-7476 -6506 0
7476 -7475 6506 0
7476 -6278 0
-7477 7476 0
-7477 -6278 0
7477 -7476 6278 0
7477 -6042 0
-7478 7477 0
-7478 -6042 0
7478 -7477 6042 0
7478 -7433 0
-7479 7478 0
-7479 -7433 0
7479 -7478 7433 0
7479 -7434 0
-7480 7479 0
-7480 -7434 0
7480 -7479 7434 0
7480 -7435 0
-7481 7480 0
-7481 -7435 0
7481 -7480 7435 0
7481 -6736 0
-7482 7481 0
-7482 -6736 0
7482 -7481 6736 0
7482 -6947 0
-7483 7482 0
-7483 -6947 0
7483 -7482 6947 0
7483 -7149 0
-7484 7483 0
-7484 -7149 0
7484 -7483 7149 0
7484 -7342 0
-7485 7484 0
-7485 -7342 0
7485 -7484 7342 0
7485 -7436 0
-7486 7485 0
-7486 -7436 0
7486 -7485 7436 0
7486 -7437 0
-7487 7486 0
-7487 -7437 0
7487 -7486 7437 0
7487 -7438 0
-7488 7487 0
-7488 -7438 0
7488 -7487 7438 0
7488 -5944 0
-7489 7488 0
-7489 -5944 0
7489 -7488 5944 0
7489 -6182 0
-7490 7489 0
-7490 -6182 0
7490 -7489 6182 0
7490 -6412 0
-7491 7490 0
-7491 -6412 0
7491 -7490 6412 0
7491 -6634 0
-7492 7491 0
-7492 -6634 0
7492 -7491 6634 0
7492 -6848 0
-7493 7492 0
-7493 -6848 0
7493 -7492 6848 0
7493 -7054 0
-7494 7493 0
-7494 -7054 0
7494 -7493 7054 0
7494 -7250 0
-7495 7494 0
-7495 -7250 0
7495 -7494 7250 0
7495 -7439 0
-7496 7495 0
-7496 -7439 0
7496 -7495 7439 0
7496 -7440 0
-7497 7496 0
-7497 -7440 0
7497 -7496 7440 0
7497 -7441 0
-7498 7497 0
-7498 -7441 0
7498 -7497 7441 0
7498 -6074 0
-7499 7498 0
-7499 -6074 0
7499 -7498 6074 0
7499 -6307 0
-7500 7499 0
-7500 -6307 0
7500 -7499 6307 0
7500 -6532 0
-7501 7500 0
-7501 -6532 0
7501 -7500 6532 0
-7502 12 0
-7502 48 0
7502 -12 -48 0
-7503 32 0
-7503 47 0
7503 -32 -47 0
-7504 31 0
-7504 46 0
7504 -31 -46 0
-7505 30 0
-7505 45 0
7505 -30 -45 0
-7506 29 0
-7506 44 0
7506 -29 -44 0
-7507 28 0
-7507 43 0
7507 -28 -43 0
-7508 27 0
-7508 42 0
7508 -27 -42 0
-7509 26 0
-7509 41 0
7509 -26 -41 0
-7510 25 0
-7510 40 0
7510 -25 -40 0
-7511 24 0
-7511 39 0
7511 -24 -39 0
-7512 23 0
-7512 38 0
7512 -23 -38 0
-7513 22 0
-7513 37 0
7513 -22 -37 0
-7514 21 0
-7514 36 0
7514 -21 -36 0
-7515 20 0
-7515 35 0
7515 -20 -35 0
-7516 19 0
-7516 34 0
7516 -19 -34 0
-7517 18 0
-7517 33 0
7517 -18 -33 0
-7518 17 0
-7518 53 0
7518 -17 -53 0
-7519 16 0
-7519 52 0
7519 -16 -52 0
-7520 15 0
-7520 51 0
7520 -15 -51 0
-7521 14 0
-7521 50 0
7521 -14 -50 0
-7522 13 0
-7522 49 0
7522 -13 -49 0
-7523 61 0
-7523 71 0
7523 -61 -71 0
-7524 62 0
-7524 70 0
7524 -62 -70 0
-7525 63 0
-7525 69 0
7525 -63 -69 0
-7526 55 0
-7526 81 0
7526 -55 -81 0
-7527 54 0
-7527 80 0
7527 -54 -80 0
-7528 69 0
-7528 94 0
7528 -69 -94 0
-7529 70 0
-7529 93 0
7529 -70 -93 0
-7530 71 0
-7530 92 0
7530 -71 -92 0
-7531 80 0
-7531 85 0
7531 -80 -85 0
-7532 81 0
-7532 86 0
7532 -81 -86 0
1 -7502 0
-7502 -7503 0
-7533 -7502 0
-7533 -7503 0
7533 7502 7503 0
7533 -7504 0
-7534 7533 0
-7534 -7504 0
7534 -7533 7504 0
7534 -7505 0
-7535 7534 0
-7535 -7505 0
7535 -7534 7505 0
7535 -7506 0
-7536 7535 0
-7536 -7506 0
7536 -7535 7506 0
7536 -7507 0
-7537 7536 0
-7537 -7507 0
7537 -7536 7507 0
7537 -7508 0
-7538 7537 0
-7538 -7508 0
7538 -7537 7508 0
7538 -7509 0
-7539 7538 0
-7539 -7509 0
7539 -7538 7509 0
7539 -7510 0
-7540 7539 0
-7540 -7510 0
7540 -7539 7510 0
7540 -7511 0
-7541 7540 0
-7541 -7511 0
7541 -7540 7511 0
7541 -7512 0
-7542 7541 0
-7542 -7512 0
7542 -7541 7512 0
7542 -7513 0
-7543 7542 0
-7543 -7513 0
7543 -7542 7513 0
7543 -7514 0
-7544 7543 0
-7544 -7514 0
7544 -7543 7514 0
7544 -7515 0
-7545 7544 0
-7545 -7515 0
7545 -7544 7515 0
7545 -7516 0
-7546 7545 0
-7546 -7516 0
7546 -7545 7516 0
7546 -7517 0
-7547 7546 0
-7547 -7517 0
7547 -7546 7517 0
7547 -7518 0
-7548 7547 0
-7548 -7518 0
7548 -7547 7518 0
7548 -7519 0
-7549 7548 0
-7549 -7519 0
7549 -7548 7519 0
7549 -7520 0
-7550 7549 0
-7550 -7520 0
7550 -7549 7520 0
7550 -7521 0
-7551 7550 0
-7551 -7521 0
7551 -7550 7521 0
7551 -7522 0
-7552 7551 0
-7552 -7522 0
7552 -7551 7522 0
7552 -7341 0
-7553 7552 0
-7553 -7341 0
7553 -7552 7341 0
7553 -7146 0
-7554 7553 0
-7554 -7146 0
7554 -7553 7146 0
7554 -6943 0
-7555 7554 0
-7555 -6943 0
7555 -7554 6943 0
7555 -6732 0
-7556 7555 0
-7556 -6732 0
7556 -7555 6732 0
7556 -6513 0
-7557 7556 0
-7557 -6513 0
7557 -7556 6513 0
7557 -6286 0
-7558 7557 0
-7558 -6286 0
7558 -7557 6286 0
7558 -6051 0
-7559 7558 0
-7559 -6051 0
7559 -7558 6051 0
7559 -7523 0
-7560 7559 0
-7560 -7523 0
7560 -7559 7523 0
7560 -7524 0
-7561 7560 0
-7561 -7524 0
7561 -7560 7524 0
7561 -7525 0
-7562 7561 0
-7562 -7525 0
7562 -7561 7525 0
7562 -7432 0
-7563 7562 0
-7563 -7432 0
7563 -7562 7432 0
7563 -7240 0
-7564 7563 0
-7564 -7240 0
7564 -7563 7240 0
7564 -7040 0
-7565 7564 0
-7565 -7040 0
7565 -7564 7040 0
7565 -6832 0
-7566 7565 0
-7566 -6832 0
7566 -7565 6832 0
7566 -6616 0
-7567 7566 0
-7567 -6616 0
7567 -7566 6616 0
7567 -6392 0
-7568 7567 0
-7568 -6392 0
7568 -7567 6392 0
7568 -6160 0
-7569 7568 0
-7569 -6160 0
7569 -7568 6160 0
7569 -5920 0
-7570 7569 0
-7570 -5920 0
7570 -7569 5920 0
7570 -7526 0
-7571 7570 0
-7571 -7526 0
7571 -7570 7526 0
7571 -7527 0
-7572 7571 0
-7572 -7527 0
7572 -7571 7527 0
7572 -6628 0
-7573 7572 0
-7573 -6628 0
7573 -7572 6628 0
7573 -6843 0
-7574 7573 0
-7574 -6843 0
7574 -7573 6843 0
7574 -7050 0
-7575 7574 0
-7575 -7050 0
7575 -7574 7050 0
7575 -7247 0
-7576 7575 0
-7576 -7247 0
7576 -7575 7247 0
7576 -7436 0
-7577 7576 0
-7577 -7436 0
7577 -7576 7436 0
7577 -7528 0
-7578 7577 0
-7578 -7528 0
7578 -7577 7528 0
7578 -7529 0
-7579 7578 0
-7579 -7529 0
7579 -7578 7529 0
7579 -7530 0
-7580 7579 0
-7580 -7530 0
7580 -7579 7530 0
7580 -6065 0
-7581 7580 0
-7581 -6065 0
7581 -7580 6065 0
7581 -6299 0
-7582 7581 0
-7582 -6299 0
7582 -7581 6299 0
7582 -6525 0
-7583 7582 0
-7583 -6525 0
7583 -7582 6525 0
7583 -6743 0
-7584 7583 0
-7584 -6743 0
7584 -7583 6743 0
7584 -6953 0
-7585 7584 0
-7585 -6953 0
7585 -7584 6953 0
7585 -7154 0
-7586 7585 0
-7586 -7154 0
7586 -7585 7154 0
7586 -7346 0
-7587 7586 0
-7587 -7346 0
7587 -7586 7346 0
7587 -7531 0
-7588 7587 0
-7588 -7531 0
7588 -7587 7531 0
7588 -7532 0
-7589 7588 0
-7589 -7532 0
7589 -7588 7532 0
7589 -5955 0
-7590 7589 0
-7590 -5955 0
7590 -7589 5955 0
7590 -6192 0
-7591 7590 0
-7591 -6192 0
7591 -7590 6192 0
7591 -6421 0
-7592 7591 0
-7592 -6421 0
7592 -7591 6421 0
-7593 12 0
-7593 49 0
7593 -12 -49 0
-7594 32 0
-7594 48 0
7594 -32 -48 0
-7595 31 0
-7595 47 0
7595 -31 -47 0
-7596 30 0
-7596 46 0
7596 -30 -46 0
-7597 29 0
-7597 45 0
7597 -29 -45 0
-7598 28 0
-7598 44 0
7598 -28 -44 0
-7599 27 0
-7599 43 0
7599 -27 -43 0
-7600 26 0
-7600 42 0
7600 -26 -42 0
-7601 25 0
-7601 41 0
7601 -25 -41 0
-7602 24 0
-7602 40 0
7602 -24 -40 0
-7603 23 0
-7603 39 0
7603 -23 -39 0
-7604 22 0
-7604 38 0
7604 -22 -38 0
-7605 21 0
-7605 37 0
7605 -21 -37 0
-7606 20 0
-7606 36 0
7606 -20 -36 0
-7607 19 0
-7607 35 0
7607 -19 -35 0
-7608 18 0
-7608 34 0
7608 -18 -34 0
-7609 17 0
-7609 33 0
7609 -17 -33 0
-7610 16 0
-7610 53 0
7610 -16 -53 0
-7611 15 0
-7611 52 0
7611 -15 -52 0
-7612 14 0
-7612 51 0
7612 -14 -51 0
-7613 13 0
-7613 50 0
7613 -13 -50 0
-7614 62 0
-7614 71 0
7614 -62 -71 0
-7615 63 0
-7615 70 0
7615 -63 -70 0
-7616 55 0
-7616 82 0
7616 -55 -82 0
-7617 54 0
-7617 81 0
7617 -54 -81 0
-7618 70 0
-7618 94 0
7618 -70 -94 0
-7619 71 0
-7619 93 0
7619 -71 -93 0
-7620 81 0
-7620 85 0
7620 -81 -85 0
-7621 82 0
-7621 86 0
7621 -82 -86 0
1 -7593 0
-7593 -7594 0
-7622 -7593 0
-7622 -7594 0
7622 7593 7594 0
7622 -7595 0
-7623 7622 0
-7623 -7595 0
7623 -7622 7595 0
7623 -7596 0
-7624 7623 0
-7624 -7596 0
7624 -7623 7596 0
7624 -7597 0
-7625 7624 0
-7625 -7597 0
7625 -7624 7597 0
7625 -7598 0
-7626 7625 0
-7626 -7598 0
7626 -7625 7598 0
7626 -7599 0
-7627 7626 0
-7627 -7599 0
7627 -7626 7599 0
7627 -7600 0
-7628 7627 0
-7628 -7600 0
7628 -7627 7600 0
7628 -7601 0
-7629 7628 0
-7629 -7601 0
7629 -7628 7601 0
7629 -7602 0
-7630 7629 0
-7630 -7602 0
7630 -7629 7602 0
7630 -7603 0
-7631 7630 0
-7631 -7603 0
7631 -7630 7603 0
7631 -7604 0
-7632 7631 0
-7632 -7604 0
7632 -7631 7604 0
7632 -7605 0
-7633 7632 0
-7633 -7605 0
7633 -7632 7605 0
7633 -7606 0
-7634 7633 0
-7634 -7606 0
7634 -7633 7606 0
7634 -7607 0
-7635 7634 0
-7635 -7607 0
7635 -7634 7607 0
7635 -7608 0
-7636 7635 0
-7636 -7608 0
7636 -7635 7608 0
7636 -7609 0
-7637 7636 0
-7637 -7609 0
7637 -7636 7609 0
7637 -7610 0
-7638 7637 0
-7638 -7610 0
7638 -7637 7610 0
7638 -7611 0
-7639 7638 0
-7639 -7611 0
7639 -7638 7611 0
7639 -7612 0
-7640 7639 0
-7640 -7612 0
7640 -7639 7612 0
7640 -7613 0
-7641 7640 0
-7641 -7613 0
7641 -7640 7613 0
7641 -7435 0
-7642 7641 0
-7642 -7435 0
7642 -7641 7435 0
7642 -7244 0
-7643 7642 0
-7643 -7244 0
7643 -7642 7244 0
7643 -7045 0
-7644 7643 0
-7644 -7045 0
7644 -7643 7045 0
7644 -6838 0
-7645 7644 0
-7645 -6838 0
7645 -7644 6838 0
7645 -6623 0
-7646 7645 0
-7646 -6623 0
7646 -7645 6623 0
7646 -6400 0
-7647 7646 0
-7647 -6400 0
7647 -7646 6400 0
7647 -6169 0
-7648 7647 0
-7648 -6169 0
7648 -7647 6169 0
7648 -5930 0
-7649 7648 0
-7649 -5930 0
7649 -7648 5930 0
7649 -7614 0
-7650 7649 0
-7650 -7614 0
7650 -7649 7614 0
7650 -7615 0
-7651 7650 0
-7651 -7615 0
7651 -7650 7615 0
7651 -7525 0
-7652 7651 0
-7652 -7525 0
7652 -7651 7525 0
7652 -7337 0
-7653 7652 0
-7653 -7337 0
7653 -7652 7337 0
7653 -7141 0
-7654 7653 0
-7654 -7141 0
7654 -7653 7141 0
7654 -6937 0
-7655 7654 0
-7655 -6937 0
7655 -7654 6937 0
7655 -6725 0
-7656 7655 0
-7656 -6725 0
7656 -7655 6725 0
7656 -6505 0
-7657 7656 0
-7657 -6505 0
7657 -7656 6505 0
7657 -6277 0
-7658 7657 0
-7658 -6277 0
7658 -7657 6277 0
7658 -6041 0
-7659 7658 0
-7659 -6041 0
7659 -7658 6041 0
7659 -7616 0
-7660 7659 0
-7660 -7616 0
7660 -7659 7616 0
7660 -7617 0
-7661 7660 0
-7661 -7617 0
7661 -7660 7617 0
7661 -6518 0
-7662 7661 0
-7662 -6518 0
7662 -7661 6518 0
7662 -6737 0
-7663 7662 0
-7663 -6737 0
7663 -7662 6737 0
7663 -6948 0
-7664 7663 0
-7664 -6948 0
7664 -7663 6948 0
7664 -7150 0
-7665 7664 0
-7665 -7150 0
7665 -7664 7150 0
7665 -7343 0
-7666 7665 0
-7666 -7343 0
7666 -7665 7343 0
7666 -7528 0
-7667 7666 0
-7667 -7528 0
7667 -7666 7528 0
7667 -7618 0
-7668 7667 0
-7668 -7618 0
7668 -7667 7618 0
7668 -7619 0
-7669 7668 0
-7669 -7619 0
7669 -7668 7619 0
7669 -5945 0
-7670 7669 0
-7670 -5945 0
7670 -7669 5945 0
7670 -6183 0
-7671 7670 0
-7671 -6183 0
7671 -7670 6183 0
7671 -6413 0
-7672 7671 0
-7672 -6413 0
7672 -7671 6413 0
7672 -6635 0
-7673 7672 0
-7673 -6635 0
7673 -7672 6635 0
7673 -6849 0
-7674 7673 0
-7674 -6849 0
7674 -7673 6849 0
7674 -7055 0
-7675 7674 0
-7675 -7055 0
7675 -7674 7055 0
7675 -7251 0
-7676 7675 0
-7676 -7251 0
7676 -7675 7251 0
7676 -7439 0
-7677 7676 0
-7677 -7439 0
7677 -7676 7439 0
7677 -7620 0
-7678 7677 0
-7678 -7620 0
7678 -7677 7620 0
7678 -7621 0
-7679 7678 0
-7679 -7621 0
7679 -7678 7621 0
7679 -6075 0
-7680 7679 0
-7680 -6075 0
7680 -7679 6075 0
7680 -6308 0
-7681 7680 0
-7681 -6308 0
7681 -7680 6308 0
-7682 12 0
-7682 50 0
7682 -12 -50 0
-7683 32 0
-7683 49 0
7683 -32 -49 0
-7684 31 0
-7684 48 0
7684 -31 -48 0
-7685 30 0
-7685 47 0
7685 -30 -47 0
-7686 29 0
-7686 46 0
7686 -29 -46 0
-7687 28 0
-7687 45 0
7687 -28 -45 0
-7688 27 0
-7688 44 0
7688 -27 -44 0
-7689 26 0
-7689 43 0
7689 -26 -43 0
-7690 25 0
-7690 42 0
7690 -25 -42 0
-7691 24 0
-7691 41 0
7691 -24 -41 0
-7692 23 0
-7692 40 0
7692 -23 -40 0
-7693 22 0
-7693 39 0
7693 -22 -39 0
-7694 21 0
-7694 38 0
7694 -21 -38 0
-7695 20 0
-7695 37 0
7695 -20 -37 0
-7696 19 0
-7696 36 0
7696 -19 -36 0
-7697 18 0
-7697 35 0
7697 -18 -35 0
-7698 17 0
-7698 34 0
7698 -17 -34 0
-7699 16 0
-7699 33 0
7699 -16 -33 0
-7700 15 0
-7700 53 0
7700 -15 -53 0
-7701 14 0
-7701 52 0
7701 -14 -52 0
-7702 13 0
-7702 51 0
7702 -13 -51 0
-7703 62 0
-7703 72 0
7703 -62 -72 0
-7704 63 0
-7704 71 0
7704 -63 -71 0
-7705 54 0
-7705 82 0
7705 -54 -82 0
-7706 71 0
-7706 94 0
7706 -71 -94 0
-7707 72 0
-7707 93 0
7707 -72 -93 0
-7708 82 0
-7708 85 0
7708 -82 -85 0
1 -7682 0
-7682 -7683 0
-7709 -7682 0
-7709 -7683 0
7709 7682 7683 0
7709 -7684 0
-7710 7709 0
-7710 -7684 0
7710 -7709 7684 0
7710 -7685 0
-7711 7710 0
-7711 -7685 0
7711 -7710 7685 0
7711 -7686 0
-7712 7711 0
-7712 -7686 0
7712 -7711 7686 0
7712 -7687 0
-7713 7712 0
-7713 -7687 0
7713 -7712 7687 0
7713 -7688 0
-7714 7713 0
-7714 -7688 0
7714 -7713 7688 0
7714 -7689 0
-7715 7714 0
-7715 -7689 0
7715 -7714 7689 0
7715 -7690 0
-7716 7715 0
-7716 -7690 0
7716 -7715 7690 0
7716 -7691 0
-7717 7716 0
-7717 -7691 0
7717 -7716 7691 0
7717 -7692 0
-7718 7717 0
-7718 -7692 0
7718 -7717 7692 0
7718 -7693 0
-7719 7718 0
-7719 -7693 0
7719 -7718 7693 0
7719 -7694 0
-7720 7719 0
-7720 -7694 0
7720 -7719 7694 0
7720 -7695 0
-7721 7720 0
-7721 -7695 0
7721 -7720 7695 0
7721 -7696 0
-7722 7721 0
-7722 -7696 0
7722 -7721 7696 0
7722 -7697 0
-7723 7722 0
-7723 -7697 0
7723 -7722 7697 0
7723 -7698 0
-7724 7723 0
-7724 -7698 0
7724 -7723 7698 0
7724 -7699 0
-7725 7724 0
-7725 -7699 0
7725 -7724 7699 0
7725 -7700 0
-7726 7725 0
-7726 -7700 0
7726 -7725 7700 0
7726 -7701 0
-7727 7726 0
-7727 -7701 0
7727 -7726 7701 0
7727 -7702 0
-7728 7727 0
-7728 -7702 0
7728 -7727 7702 0
7728 -7527 0
-7729 7728 0
-7729 -7527 0
7729 -7728 7527 0
7729 -7340 0
-7730 7729 0
-7730 -7340 0
7730 -7729 7340 0
7730 -7145 0
-7731 7730 0
-7731 -7145 0
7731 -7730 7145 0
7731 -6942 0
-7732 7731 0
-7732 -6942 0
7732 -7731 6942 0
7732 -6731 0
-7733 7732 0
-7733 -6731 0
7733 -7732 6731 0
7733 -6512 0
-7734 7733 0
-7734 -6512 0
7734 -7733 6512 0
7734 -6285 0
-7735 7734 0
-7735 -6285 0
7735 -7734 6285 0
7735 -6050 0
-7736 7735 0
-7736 -6050 0
7736 -7735 6050 0
7736 -7703 0
-7737 7736 0
-7737 -7703 0
7737 -7736 7703 0
7737 -7704 0
-7738 7737 0
-7738 -7704 0
7738 -7737 7704 0
7738 -7615 0
-7739 7738 0
-7739 -7615 0
7739 -7738 7615 0
7739 -7431 0
-7740 7739 0
-7740 -7431 0
7740 -7739 7431 0
7740 -7239 0
-7741 7740 0
-7741 -7239 0
7741 -7740 7239 0
7741 -7039 0
-7742 7741 0
-7742 -7039 0
7742 -7741 7039 0
7742 -6831 0
-7743 7742 0
-7743 -6831 0
7743 -7742 6831 0
7743 -6615 0
-7744 7743 0
-7744 -6615 0
7744 -7743 6615 0
7744 -6391 0
-7745 7744 0
-7745 -6391 0
7745 -7744 6391 0
7745 -6159 0
-7746 7745 0
-7746 -6159 0
7746 -7745 6159 0
7746 -5919 0
-7747 7746 0
-7747 -5919 0
7747 -7746 5919 0
7747 -7705 0
-7748 7747 0
-7748 -7705 0
7748 -7747 7705 0
7748 -6406 0
-7749 7748 0
-7749 -6406 0
7749 -7748 6406 0
7749 -6629 0
-7750 7749 0
-7750 -6629 0
7750 -7749 6629 0
7750 -6844 0
-7751 7750 0
-7751 -6844 0
7751 -7750 6844 0
7751 -7051 0
-7752 7751 0
-7752 -7051 0
7752 -7751 7051 0
7752 -7248 0
-7753 7752 0
-7753 -7248 0
7753 -7752 7248 0
7753 -7437 0
-7754 7753 0
-7754 -7437 0
7754 -7753 7437 0
7754 -7618 0
-7755 7754 0
-7755 -7618 0
7755 -7754 7618 0
7755 -7706 0
-7756 7755 0
-7756 -7706 0
7756 -7755 7706 0
7756 -7707 0
-7757 7756 0
-7757 -7707 0
7757 -7756 7707 0
7757 -6066 0
-7758 7757 0
-7758 -6066 0
7758 -7757 6066 0
7758 -6300 0
-7759 7758 0
-7759 -6300 0
7759 -7758 6300 0
7759 -6526 0
-7760 7759 0
-7760 -6526 0
7760 -7759 6526 0
7760 -6744 0
-7761 7760 0
-7761 -6744 0
7761 -7760 6744 0
7761 -6954 0
-7762 7761 0
-7762 -6954 0
7762 -7761 6954 0
7762 -7155 0
-7763 7762 0
-7763 -7155 0
7763 -7762 7155 0
7763 -7347 0
-7764 7763 0
-7764 -7347 0
7764 -7763 7347 0
7764 -7531 0
-7765 7764 0
-7765 -7531 0
7765 -7764 7531 0
7765 -7708 0
-7766 7765 0
-7766 -7708 0
7766 -7765 7708 0
7766 -5956 0
-7767 7766 0
-7767 -5956 0
7767 -7766 5956 0
7767 -6193 0
-7768 7767 0
-7768 -6193 0
7768 -7767 6193 0
-7769 12 0
-7769 51 0
7769 -12 -51 0
-7770 32 0
-7770 50 0
7770 -32 -50 0
-7771 31 0
-7771 49 0
7771 -31 -49 0
-7772 30 0
-7772 48 0
7772 -30 -48 0
-7773 29 0
-7773 47 0
7773 -29 -47 0
-7774 28 0
-7774 46 0
7774 -28 -46 0
-7775 27 0
-7775 45 0
7775 -27 -45 0
-7776 26 0
-7776 44 0
7776 -26 -44 0
-7777 25 0
-7777 43 0
7777 -25 -43 0
-7778 24 0
-7778 42 0
7778 -24 -42 0
-7779 23 0
-7779 41 0
7779 -23 -41 0
-7780 22 0
-7780 40 0
7780 -22 -40 0
-7781 21 0
-7781 39 0
7781 -21 -39 0
-7782 20 0
-7782 38 0
7782 -20 -38 0
-7783 19 0
-7783 37 0
7783 -19 -37 0
-7784 18 0
-7784 36 0
7784 -18 -36 0
-7785 17 0
-7785 35 0
7785 -17 -35 0
-7786 16 0
-7786 34 0
7786 -16 -34 0
-7787 15 0
-7787 33 0
7787 -15 -33 0
-7788 14 0
-7788 53 0
7788 -14 -53 0
-7789 13 0
-7789 52 0
7789 -13 -52 0
-7790 63 0
-7790 72 0
7790 -63 -72 0
-7791 54 0
-7791 83 0
7791 -54 -83 0
-7792 72 0
-7792 94 0
7792 -72 -94 0
-7793 83 0
-7793 85 0
7793 -83 -85 0
1 -7769 0
-7769 -7770 0
-7794 -7769 0
-7794 -7770 0
7794 7769 7770 0
7794 -7771 0
-7795 7794 0
-7795 -7771 0
7795 -7794 7771 0
7795 -7772 0
-7796 7795 0
-7796 -7772 0
7796 -7795 7772 0
7796 -7773 0
-7797 7796 0
-7797 -7773 0
7797 -7796 7773 0
7797 -7774 0
-7798 7797 0
-7798 -7774 0
7798 -7797 7774 0
7798 -7775 0
-7799 7798 0
-7799 -7775 0
7799 -7798 7775 0
7799 -7776 0
-7800 7799 0
-7800 -7776 0
7800 -7799 7776 0
7800 -7777 0
-7801 7800 0
-7801 -7777 0
7801 -7800 7777 0
7801 -7778 0
-7802 7801 0
-7802 -7778 0
7802 -7801 7778 0
7802 -7779 0
-7803 7802 0
-7803 -7779 0
7803 -7802 7779 0
7803 -7780 0
-7804 7803 0
-7804 -7780 0
7804 -7803 7780 0
7804 -7781 0
-7805 7804 0
-7805 -7781 0
7805 -7804 7781 0
7805 -7782 0
-7806 7805 0
-7806 -7782 0
7806 -7805 7782 0
7806 -7783 0
-7807 7806 0
-7807 -7783 0
7807 -7806 7783 0
7807 -7784 0
-7808 7807 0
-7808 -7784 0
7808 -7807 7784 0
7808 -7785 0
-7809 7808 0
-7809 -7785 0
7809 -7808 7785 0
7809 -7786 0
-7810 7809 0
-7810 -7786 0
7810 -7809 7786 0
7810 -7787 0
-7811 7810 0
-7811 -7787 0
7811 -7810 7787 0
7811 -7788 0
-7812 7811 0
-7812 -7788 0
7812 -7811 7788 0
7812 -7789 0
-7813 7812 0
-7813 -7789 0
7813 -7812 7789 0
7813 -7617 0
-7814 7813 0
-7814 -7617 0
7814 -7813 7617 0
7814 -7434 0
-7815 7814 0
-7815 -7434 0
7815 -7814 7434 0
7815 -7243 0
-7816 7815 0
-7816 -7243 0
7816 -7815 7243 0
7816 -7044 0
-7817 7816 0
-7817 -7044 0
7817 -7816 7044 0
7817 -6837 0
-7818 7817 0
-7818 -6837 0
7818 -7817 6837 0
7818 -6622 0
-7819 7818 0
-7819 -6622 0
7819 -7818 6622 0
7819 -6399 0
-7820 7819 0
-7820 -6399 0
7820 -7819 6399 0
7820 -6168 0
-7821 7820 0
-7821 -6168 0
7821 -7820 6168 0
7821 -5929 0
-7822 7821 0
-7822 -5929 0
7822 -7821 5929 0
7822 -7790 0
-7823 7822 0
-7823 -7790 0
7823 -7822 7790 0
7823 -7704 0
-7824 7823 0
-7824 -7704 0
7824 -7823 7704 0
7824 -7524 0
-7825 7824 0
-7825 -7524 0
7825 -7824 7524 0
7825 -7336 0
-7826 7825 0
-7826 -7336 0
7826 -7825 7336 0
7826 -7140 0
-7827 7826 0
-7827 -7140 0
7827 -7826 7140 0
7827 -6936 0
-7828 7827 0
-7828 -6936 0
7828 -7827 6936 0
7828 -6724 0
-7829 7828 0
-7829 -6724 0
7829 -7828 6724 0
7829 -6504 0
-7830 7829 0
-7830 -6504 0
7830 -7829 6504 0
7830 -6276 0
-7831 7830 0
-7831 -6276 0
7831 -7830 6276 0
7831 -6040 0
-7832 7831 0
-7832 -6040 0
7832 -7831 6040 0
7832 -7791 0
-7833 7832 0
-7833 -7791 0
7833 -7832 7791 0
7833 -6292 0
-7834 7833 0
-7834 -6292 0
7834 -7833 6292 0
7834 -6519 0
-7835 7834 0
-7835 -6519 0
7835 -7834 6519 0
7835 -6738 0
-7836 7835 0
-7836 -6738 0
7836 -7835 6738 0
7836 -6949 0
-7837 7836 0
-7837 -6949 0
7837 -7836 6949 0
7837 -7151 0
-7838 7837 0
-7838 -7151 0
7838 -7837 7151 0
7838 -7344 0
-7839 7838 0
-7839 -7344 0
7839 -7838 7344 0
7839 -7529 0
-7840 7839 0
-7840 -7529 0
7840 -7839 7529 0
7840 -7706 0
-7841 7840 0
-7841 -7706 0
7841 -7840 7706 0
7841 -7792 0
-7842 7841 0
-7842 -7792 0
7842 -7841 7792 0
7842 -5946 0
-7843 7842 0
-7843 -5946 0
7843 -7842 5946 0
7843 -6184 0
-7844 7843 0
-7844 -6184 0
7844 -7843 6184 0
7844 -6414 0
-7845 7844 0
-7845 -6414 0
7845 -7844 6414 0
7845 -6636 0
-7846 7845 0
-7846 -6636 0
7846 -7845 6636 0
7846 -6850 0
-7847 7846 0
-7847 -6850 0
7847 -7846 6850 0
7847 -7056 0
-7848 7847 0
-7848 -7056 0
7848 -7847 7056 0
7848 -7252 0
-7849 7848 0
-7849 -7252 0
7849 -7848 7252 0
7849 -7440 0
-7850 7849 0
-7850 -7440 0
7850 -7849 7440 0
7850 -7620 0
-7851 7850 0
-7851 -7620 0
7851 -7850 7620 0
7851 -7793 0
-7852 7851 0
-7852 -7793 0
7852 -7851 7793 0
7852 -6076 0
-7853 7852 0
-7853 -6076 0
7853 -7852 6076 0
-7854 12 0
-7854 52 0
7854 -12 -52 0
-7855 32 0
-7855 51 0
7855 -32 -51 0
-7856 31 0
-7856 50 0
7856 -31 -50 0
-7857 30 0
-7857 49 0
7857 -30 -49 0
-7858 29 0
-7858 48 0
7858 -29 -48 0
-7859 28 0
-7859 47 0
7859 -28 -47 0
-7860 27 0
-7860 46 0
7860 -27 -46 0
-7861 26 0
-7861 45 0
7861 -26 -45 0
-7862 25 0
-7862 44 0
7862 -25 -44 0
-7863 24 0
-7863 43 0
7863 -24 -43 0
-7864 23 0
-7864 42 0
7864 -23 -42 0
-7865 22 0
-7865 41 0
7865 -22 -41 0
-7866 21 0
-7866 40 0
7866 -21 -40 0
-7867 20 0
-7867 39 0
7867 -20 -39 0
-7868 19 0
-7868 38 0
7868 -19 -38 0
-7869 18 0
-7869 37 0
7869 -18 -37 0
-7870 17 0
-7870 36 0
7870 -17 -36 0
-7871 16 0
-7871 35 0
7871 -16 -35 0
-7872 15 0
-7872 34 0
7872 -15 -34 0
-7873 14 0
-7873 33 0
7873 -14 -33 0
-7874 13 0
-7874 53 0
7874 -13 -53 0
-7875 63 0
-7875 73 0
7875 -63 -73 0
-7876 73 0
-7876 94 0
7876 -73 -94 0
1 -7854 0
-7854 -7855 0
-7877 -7854 0
-7877 -7855 0
7877 7854 7855 0
7877 -7856 0
-7878 7877 0
-7878 -7856 0
7878 -7877 7856 0
7878 -7857 0
-7879 7878 0
-7879 -7857 0
7879 -7878 7857 0
7879 -7858 0
-7880 7879 0
-7880 -7858 0
7880 -7879 7858 0
7880 -7859 0
-7881 7880 0
-7881 -7859 0
7881 -7880 7859 0
7881 -7860 0
-7882 7881 0
-7882 -7860 0
7882 -7881 7860 0
7882 -7861 0
-7883 7882 0
-7883 -7861 0
7883 -7882 7861 0
7883 -7862 0
-7884 7883 0
-7884 -7862 0
7884 -7883 7862 0
7884 -7863 0
-7885 7884 0
-7885 -7863 0
7885 -7884 7863 0
7885 -7864 0
-7886 7885 0
-7886 -7864 0
7886 -7885 7864 0
7886 -7865 0
-7887 7886 0
-7887 -7865 0
7887 -7886 7865 0
7887 -7866 0
-7888 7887 0
-7888 -7866 0
7888 -7887 7866 0
7888 -7867 0
-7889 7888 0
-7889 -7867 0
7889 -7888 7867 0
7889 -7868 0
-7890 7889 0
-7890 -7868 0
7890 -7889 7868 0
7890 -7869 0
-7891 7890 0
-7891 -7869 0
7891 -7890 7869 0
7891 -7870 0
-7892 7891 0
-7892 -7870 0
7892 -7891 7870 0
7892 -7871 0
-7893 7892 0
-7893 -7871 0
7893 -7892 7871 0
7893 -7872 0
-7894 7893 0
-7894 -7872 0
7894 -7893 7872 0
7894 -7873 0
-7895 7894 0
-7895 -7873 0
7895 -7894 7873 0
7895 -7874 0
-7896 7895 0
-7896 -7874 0
7896 -7895 7874 0
7896 -7705 0
-7897 7896 0
-7897 -7705 0
7897 -7896 7705 0
7897 -7526 0
-7898 7897 0
-7898 -7526 0
7898 -7897 7526 0
7898 -7339 0
-7899 7898 0
-7899 -7339 0
7899 -7898 7339 0
7899 -7144 0
-7900 7899 0
-7900 -7144 0
7900 -7899 7144 0
7900 -6941 0
-7901 7900 0
-7901 -6941 0
7901 -7900 6941 0
7901 -6730 0
-7902 7901 0
-7902 -6730 0
7902 -7901 6730 0
7902 -6511 0
-7903 7902 0
-7903 -6511 0
7903 -7902 6511 0
7903 -6284 0
-7904 7903 0
-7904 -6284 0
7904 -7903 6284 0
7904 -6049 0
-7905 7904 0
-7905 -6049 0
7905 -7904 6049 0
7905 -7875 0
-7906 7905 0
-7906 -7875 0
7906 -7905 7875 0
7906 -7790 0
-7907 7906 0
-7907 -7790 0
7907 -7906 7790 0
7907 -7614 0
-7908 7907 0
-7908 -7614 0
7908 -7907 7614 0
7908 -7430 0
-7909 7908 0
-7909 -7430 0
7909 -7908 7430 0
7909 -7238 0
-7910 7909 0
-7910 -7238 0
7910 -7909 7238 0
7910 -7038 0
-7911 7910 0
-7911 -7038 0
7911 -7910 7038 0
7911 -6830 0
-7912 7911 0
-7912 -6830 0
7912 -7911 6830 0
7912 -6614 0
-7913 7912 0
-7913 -6614 0
7913 -7912 6614 0
7913 -6390 0
-7914 7913 0
-7914 -6390 0
7914 -7913 6390 0
7914 -6158 0
-7915 7914 0
-7915 -6158 0
7915 -7914 6158 0
7915 -5918 0
-7916 7915 0
-7916 -5918 0
7916 -7915 5918 0
7916 -6176 0
-7917 7916 0
-7917 -6176 0
7917 -7916 6176 0
7917 -6407 0
-7918 7917 0
-7918 -6407 0
7918 -7917 6407 0
7918 -6630 0
-7919 7918 0
-7919 -6630 0
7919 -7918 6630 0
7919 -6845 0
-7920 7919 0
-7920 -6845 0
7920 -7919 6845 0
7920 -7052 0
-7921 7920 0
-7921 -7052 0
7921 -7920 7052 0
7921 -7249 0
-7922 7921 0
-7922 -7249 0
7922 -7921 7249 0
7922 -7438 0
-7923 7922 0
-7923 -7438 0
7923 -7922 7438 0
7923 -7619 0
-7924 7923 0
-7924 -7619 0
7924 -7923 7619 0
7924 -7792 0
-7925 7924 0
-7925 -7792 0
7925 -7924 7792 0
7925 -7876 0
-7926 7925 0
-7926 -7876 0
7926 -7925 7876 0
7926 -6067 0
-7927 7926 0
-7927 -6067 0
7927 -7926 6067 0
7927 -6301 0
-7928 7927 0
-7928 -6301 0
7928 -7927 6301 0
7928 -6527 0
-7929 7928 0
-7929 -6527 0
7929 -7928 6527 0
7929 -6745 0
-7930 7929 0
-7930 -6745 0
7930 -7929 6745 0
7930 -6955 0
-7931 7930 0
-7931 -6955 0
7931 -7930 6955 0
7931 -7156 0
-7932 7931 0
-7932 -7156 0
7932 -7931 7156 0
7932 -7348 0
-7933 7932 0
-7933 -7348 0
7933 -7932 7348 0
7933 -7532 0
-7934 7933 0
-7934 -7532 0
7934 -7933 7532 0
7934 -7708 0
-7935 7934 0
-7935 -7708 0
7935 -7934 7708 0
7935 -5957 0
-7936 7935 0
-7936 -5957 0
7936 -7935 5957 0
-7937 12 0
-7937 53 0
7937 -12 -53 0
-7938 32 0
-7938 52 0
7938 -32 -52 0
-7939 31 0
-7939 51 0
7939 -31 -51 0
-7940 30 0
-7940 50 0
7940 -30 -50 0
-7941 29 0
-7941 49 0
7941 -29 -49 0
-7942 28 0
-7942 48 0
7942 -28 -48 0
-7943 27 0
-7943 47 0
7943 -27 -47 0
-7944 26 0
-7944 46 0
7944 -26 -46 0
-7945 25 0
-7945 45 0
7945 -25 -45 0
-7946 24 0
-7946 44 0
7946 -24 -44 0
-7947 23 0
-7947 43 0
7947 -23 -43 0
-7948 22 0
-7948 42 0
7948 -22 -42 0
-7949 21 0
-7949 41 0
7949 -21 -41 0
-7950 20 0
-7950 40 0
7950 -20 -40 0
-7951 19 0
-7951 39 0
7951 -19 -39 0
-7952 18 0
-7952 38 0
7952 -18 -38 0
-7953 17 0
-7953 37 0
7953 -17 -37 0
-7954 16 0
-7954 36 0
7954 -16 -36 0
-7955 15 0
-7955 35 0
7955 -15 -35 0
-7956 14 0
-7956 34 0
7956 -14 -34 0
-7957 13 0
-7957 33 0
7957 -13 -33 0
1 -7937 0
-7937 -7938 0
-7958 -7937 0
-7958 -7938 0
7958 7937 7938 0
7958 -7939 0
-7959 7958 0
-7959 -7939 0
7959 -7958 7939 0
7959 -7940 0
-7960 7959 0
-7960 -7940 0
7960 -7959 7940 0
7960 -7941 0
-7961 7960 0
-7961 -7941 0
7961 -7960 7941 0
7961 -7942 0
-7962 7961 0
-7962 -7942 0
7962 -7961 7942 0
7962 -7943 0
-7963 7962 0
-7963 -7943 0
7963 -7962 7943 0
7963 -7944 0
-7964 7963 0
-7964 -7944 0
7964 -7963 7944 0
7964 -7945 0
-7965 7964 0
-7965 -7945 0
7965 -7964 7945 0
7965 -7946 0
-7966 7965 0
-7966 -7946 0
7966 -7965 7946 0
7966 -7947 0
-7967 7966 0
-7967 -7947 0
7967 -7966 7947 0
7967 -7948 0
-7968 7967 0
-7968 -7948 0
7968 -7967 7948 0
7968 -7949 0
-7969 7968 0
-7969 -7949 0
7969 -7968 7949 0
7969 -7950 0
-7970 7969 0
-7970 -7950 0
7970 -7969 7950 0
7970 -7951 0
-7971 7970 0
-7971 -7951 0
7971 -7970 7951 0
7971 -7952 0
-7972 7971 0
-7972 -7952 0
7972 -7971 7952 0
7972 -7953 0
-7973 7972 0
-7973 -7953 0
7973 -7972 7953 0
7973 -7954 0
-7974 7973 0
-7974 -7954 0
7974 -7973 7954 0
7974 -7955 0
-7975 7974 0
-7975 -7955 0
7975 -7974 7955 0
7975 -7956 0
-7976 7975 0
-7976 -7956 0
7976 -7975 7956 0
7976 -7957 0
-7977 7976 0
-7977 -7957 0
7977 -7976 7957 0
7977 -7791 0
-7978 7977 0
-7978 -7791 0
7978 -7977 7791 0
7978 -7616 0
-7979 7978 0
-7979 -7616 0
7979 -7978 7616 0
7979 -7433 0
-7980 7979 0
-7980 -7433 0
7980 -7979 7433 0
7980 -7242 0
-7981 7980 0
-7981 -7242 0
7981 -7980 7242 0
7981 -7043 0
-7982 7981 0
-7982 -7043 0
7982 -7981 7043 0
7982 -6836 0
-7983 7982 0
-7983 -6836 0
7983 -7982 6836 0
7983 -6621 0
-7984 7983 0
-7984 -6621 0
7984 -7983 6621 0
7984 -6398 0
-7985 7984 0
-7985 -6398 0
7985 -7984 6398 0
7985 -6167 0
-7986 7985 0
-7986 -6167 0
7986 -7985 6167 0
7986 -5928 0
-7987 7986 0
-7987 -5928 0
7987 -7986 5928 0
7987 -7875 0
-7988 7987 0
-7988 -7875 0
7988 -7987 7875 0
7988 -7703 0
-7989 7988 0
-7989 -7703 0
7989 -7988 7703 0
7989 -7523 0
-7990 7989 0
-7990 -7523 0
7990 -7989 7523 0
7990 -7335 0
-7991 7990 0
-7991 -7335 0
7991 -7990 7335 0
7991 -7139 0
-7992 7991 0
-7992 -7139 0
7992 -7991 7139 0
7992 -6935 0
-7993 7992 0
-7993 -6935 0
7993 -7992 6935 0
7993 -6723 0
-7994 7993 0
-7994 -6723 0
7994 -7993 6723 0
7994 -6503 0
-7995 7994 0
-7995 -6503 0
7995 -7994 6503 0
7995 -6275 0
-7996 7995 0
-7996 -6275 0
7996 -7995 6275 0
7996 -6039 0
-7997 7996 0
-7997 -6039 0
7997 -7996 6039 0
7997 -6058 0
-7998 7997 0
-7998 -6058 0
7998 -7997 6058 0
7998 -6293 0
-7999 7998 0
-7999 -6293 0
7999 -7998 6293 0
7999 -6520 0
-8000 7999 0
-8000 -6520 0
8000 -7999 6520 0
8000 -6739 0
-8001 8000 0
-8001 -6739 0
8001 -8000 6739 0
8001 -6950 0
-8002 8001 0
-8002 -6950 0
8002 -8001 6950 0
8002 -7152 0
-8003 8002 0
-8003 -7152 0
8003 -8002 7152 0
8003 -7345 0
-8004 8003 0
-8004 -7345 0
8004 -8003 7345 0
8004 -7530 0
-8005 8004 0
-8005 -7530 0
8005 -8004 7530 0
8005 -7707 0
-8006 8005 0
-8006 -7707 0
8006 -8005 7707 0
8006 -7876 0
-8007 8006 0
-8007 -7876 0
8007 -8006 7876 0
8007 -5947 0
-8008 8007 0
-8008 -5947 0
8008 -8007 5947 0
8008 -6185 0
-8009 8008 0
-8009 -6185 0
8009 -8008 6185 0
8009 -6415 0
-8010 8009 0
-8010 -6415 0
8010 -8009 6415 0
8010 -6637 0
-8011 8010 0
-8011 -6637 0
8011 -8010 6637 0
8011 -6851 0
-8012 8011 0
-8012 -6851 0
8012 -8011 6851 0
8012 -7057 0
-8013 8012 0
-8013 -7057 0
8013 -8012 7057 0
8013 -7253 0
-8014 8013 0
-8014 -7253 0
8014 -8013 7253 0
8014 -7441 0
-8015 8014 0
-8015 -7441 0
8015 -8014 7441 0
8015 -7621 0
-8016 8015 0
-8016 -7621 0
8016 -8015 7621 0
8016 -7793 0
-8017 8016 0
-8017 -7793 0
8017 -8016 7793 0
-8018 86 0
-8018 85 0
8018 -86 -85 0
-8019 87 0
-8019 86 0
8019 -87 -86 0
-8020 88 0
-8020 87 0
8020 -88 -87 0
-8021 89 0
-8021 88 0
8021 -89 -88 0
-8022 90 0
-8022 89 0
8022 -90 -89 0
-8023 91 0
-8023 90 0
8023 -91 -90 0
-8024 92 0
-8024 91 0
8024 -92 -91 0
-8025 93 0
-8025 92 0
8025 -93 -92 0
-8026 94 0
-8026 93 0
8026 -94 -93 0
-8018 0
-8019 0
-8020 0
-8021 0
-8022 0
-8023 0
-8024 0
-8025 0
-8026 0
1 -126 0
-126 -125 0
-8027 -126 0
-8027 -125 0
8027 126 125 0
8027 -145 0
-8028 8027 0
-8028 -145 0
8028 -8027 145 0
8028 -144 0
-8029 8028 0
-8029 -144 0
8029 -8028 144 0
8029 -143 0
-8030 8029 0
-8030 -143 0
8030 -8029 143 0
8030 -142 0
-8031 8030 0
-8031 -142 0
8031 -8030 142 0
8031 -141 0
-8032 8031 0
-8032 -141 0
8032 -8031 141 0
8032 -140 0
-8033 8032 0
-8033 -140 0
8033 -8032 140 0
8033 -139 0
-8034 8033 0
-8034 -139 0
8034 -8033 139 0
8034 -138 0
-8035 8034 0
-8035 -138 0
8035 -8034 138 0
8035 -137 0
-8036 8035 0
-8036 -137 0
8036 -8035 137 0
8036 -136 0
-8037 8036 0
-8037 -136 0
8037 -8036 136 0
8037 -135 0
-8038 8037 0
-8038 -135 0
8038 -8037 135 0
8038 -134 0
-8039 8038 0
-8039 -134 0
8039 -8038 134 0
8039 -133 0
-8040 8039 0
-8040 -133 0
8040 -8039 133 0
8040 -132 0
-8041 8040 0
-8041 -132 0
8041 -8040 132 0
8041 -131 0
-8042 8041 0
-8042 -131 0
8042 -8041 131 0
8042 -130 0
-8043 8042 0
-8043 -130 0
8043 -8042 130 0
8043 -129 0
-8044 8043 0
-8044 -129 0
8044 -8043 129 0
8044 -128 0
-8045 8044 0
-8045 -128 0
8045 -8044 128 0
8045 -127 0
-8046 8045 0
-8046 -127 0
8046 -8045 127 0
8046 -5232 0
-8047 8046 0
-8047 -5232 0
8047 -8046 5232 0
8047 -5231 0
-8048 8047 0
-8048 -5231 0
8048 -8047 5231 0
8048 -5251 0
-8049 8048 0
-8049 -5251 0
8049 -8048 5251 0
8049 -5250 0
-8050 8049 0
-8050 -5250 0
8050 -8049 5250 0
8050 -5249 0
-8051 8050 0
-8051 -5249 0
8051 -8050 5249 0
8051 -5248 0
-8052 8051 0
-8052 -5248 0
8052 -8051 5248 0
8052 -5247 0
-8053 8052 0
-8053 -5247 0
8053 -8052 5247 0
8053 -5246 0
-8054 8053 0
-8054 -5246 0
8054 -8053 5246 0
8054 -5245 0
-8055 8054 0
-8055 -5245 0
8055 -8054 5245 0
8055 -5244 0
-8056 8055 0
-8056 -5244 0
8056 -8055 5244 0
8056 -5243 0
-8057 8056 0
-8057 -5243 0
8057 -8056 5243 0
8057 -5242 0
-8058 8057 0
-8058 -5242 0
8058 -8057 5242 0
8058 -5241 0
-8059 8058 0
-8059 -5241 0
8059 -8058 5241 0
8059 -5240 0
-8060 8059 0
-8060 -5240 0
8060 -8059 5240 0
8060 -5239 0
-8061 8060 0
-8061 -5239 0
8061 -8060 5239 0
8061 -5238 0
-8062 8061 0
-8062 -5238 0
8062 -8061 5238 0
8062 -5237 0
-8063 8062 0
-8063 -5237 0
8063 -8062 5237 0
8063 -5236 0
-8064 8063 0
-8064 -5236 0
8064 -8063 5236 0
8064 -5235 0
-8065 8064 0
-8065 -5235 0
8065 -8064 5235 0
8065 -5234 0
-8066 8065 0
-8066 -5234 0
8066 -8065 5234 0
8066 -5233 0
-8067 8066 0
-8067 -5233 0
8067 -8066 5233 0
8067 -94 0
-8068 8067 0
-8068 -94 0
8068 -8067 94 0
-8069 87 0
-8069 85 0
8069 -87 -85 0
-8070 88 0
-8070 86 0
8070 -88 -86 0
-8071 89 0
-8071 87 0
8071 -89 -87 0
-8072 90 0
-8072 88 0
8072 -90 -88 0
-8073 91 0
-8073 89 0
8073 -91 -89 0
-8074 92 0
-8074 90 0
8074 -92 -90 0
-8075 93 0
-8075 91 0
8075 -93 -91 0
-8076 94 0
-8076 92 0
8076 -94 -92 0
-8069 0
-8070 0
-8071 0
-8072 0
-8073 0
-8074 0
-8075 0
-8076 0
-8026 0
1 -219 0
-219 -218 0
-8077 -219 0
-8077 -218 0
8077 219 218 0
8077 -217 0
-8078 8077 0
-8078 -217 0
8078 -8077 217 0
8078 -237 0
-8079 8078 0
-8079 -237 0
8079 -8078 237 0
8079 -236 0
-8080 8079 0
-8080 -236 0
8080 -8079 236 0
8080 -235 0
-8081 8080 0
-8081 -235 0
8081 -8080 235 0
8081 -234 0
-8082 8081 0
-8082 -234 0
8082 -8081 234 0
8082 -233 0
-8083 8082 0
-8083 -233 0
8083 -8082 233 0
8083 -232 0
-8084 8083 0
-8084 -232 0
8084 -8083 232 0
8084 -231 0
-8085 8084 0
-8085 -231 0
8085 -8084 231 0
8085 -230 0
-8086 8085 0
-8086 -230 0
8086 -8085 230 0
8086 -229 0
-8087 8086 0
-8087 -229 0
8087 -8086 229 0
8087 -228 0
-8088 8087 0
-8088 -228 0
8088 -8087 228 0
8088 -227 0
-8089 8088 0
-8089 -227 0
8089 -8088 227 0
8089 -226 0
-8090 8089 0
-8090 -226 0
8090 -8089 226 0
8090 -225 0
-8091 8090 0
-8091 -225 0
8091 -8090 225 0
8091 -224 0
-8092 8091 0
-8092 -224 0
8092 -8091 224 0
8092 -223 0
-8093 8092 0
-8093 -223 0
8093 -8092 223 0
8093 -222 0
-8094 8093 0
-8094 -222 0
8094 -8093 222 0
8094 -221 0
-8095 8094 0
-8095 -221 0
8095 -8094 221 0
8095 -220 0
-8096 8095 0
-8096 -220 0
8096 -8095 220 0
8096 -5304 0
-8097 8096 0
-8097 -5304 0
8097 -8096 5304 0
8097 -5303 0
-8098 8097 0
-8098 -5303 0
8098 -8097 5303 0
8098 -5302 0
-8099 8098 0
-8099 -5302 0
8099 -8098 5302 0
8099 -5322 0
-8100 8099 0
-8100 -5322 0
8100 -8099 5322 0
8100 -5321 0
-8101 8100 0
-8101 -5321 0
8101 -8100 5321 0
8101 -5320 0
-8102 8101 0
-8102 -5320 0
8102 -8101 5320 0
8102 -5319 0
-8103 8102 0
-8103 -5319 0
8103 -8102 5319 0
8103 -5318 0
-8104 8103 0
-8104 -5318 0
8104 -8103 5318 0
8104 -5317 0
-8105 8104 0
-8105 -5317 0
8105 -8104 5317 0
8105 -5316 0
-8106 8105 0
-8106 -5316 0
8106 -8105 5316 0
8106 -5315 0
-8107 8106 0
-8107 -5315 0
8107 -8106 5315 0
8107 -5314 0
-8108 8107 0
-8108 -5314 0
8108 -8107 5314 0
8108 -5313 0
-8109 8108 0
-8109 -5313 0
8109 -8108 5313 0
8109 -5312 0
-8110 8109 0
-8110 -5312 0
8110 -8109 5312 0
8110 -5311 0
-8111 8110 0
-8111 -5311 0
8111 -8110 5311 0
8111 -5310 0
-8112 8111 0
-8112 -5310 0
8112 -8111 5310 0
8112 -5309 0
-8113 8112 0
-8113 -5309 0
8113 -8112 5309 0
8113 -5308 0
-8114 8113 0
-8114 -5308 0
8114 -8113 5308 0
8114 -5307 0
-8115 8114 0
-8115 -5307 0
8115 -8114 5307 0
8115 -5306 0
-8116 8115 0
-8116 -5306 0
8116 -8115 5306 0
8116 -5305 0
-8117 8116 0
-8117 -5305 0
8117 -8116 5305 0
8117 -85 0
-8118 8117 0
-8118 -85 0
8118 -8117 85 0
-8119 88 0
-8119 85 0
8119 -88 -85 0
-8120 89 0
-8120 86 0
8120 -89 -86 0
-8121 90 0
-8121 87 0
8121 -90 -87 0
-8122 91 0
-8122 88 0
8122 -91 -88 0
-8123 92 0
-8123 89 0
8123 -92 -89 0
-8124 93 0
-8124 90 0
8124 -93 -90 0
-8125 94 0
-8125 91 0
8125 -94 -91 0
-8018 0
-8119 0
-8120 0
-8121 0
-8122 0
-8123 0
-8124 0
-8125 0
-8076 0
1 -311 0
-311 -310 0
-8126 -311 0
-8126 -310 0
8126 311 310 0
8126 -309 0
-8127 8126 0
-8127 -309 0
8127 -8126 309 0
8127 -308 0
-8128 8127 0
-8128 -308 0
8128 -8127 308 0
8128 -328 0
-8129 8128 0
-8129 -328 0
8129 -8128 328 0
8129 -327 0
-8130 8129 0
-8130 -327 0
8130 -8129 327 0
8130 -326 0
-8131 8130 0
-8131 -326 0
8131 -8130 326 0
8131 -325 0
-8132 8131 0
-8132 -325 0
8132 -8131 325 0
8132 -324 0
-8133 8132 0
-8133 -324 0
8133 -8132 324 0
8133 -323 0
-8134 8133 0
-8134 -323 0
8134 -8133 323 0
8134 -322 0
-8135 8134 0
-8135 -322 0
8135 -8134 322 0
8135 -321 0
-8136 8135 0
-8136 -321 0
8136 -8135 321 0
8136 -320 0
-8137 8136 0
-8137 -320 0
8137 -8136 320 0
8137 -319 0
-8138 8137 0
-8138 -319 0
8138 -8137 319 0
8138 -318 0
-8139 8138 0
-8139 -318 0
8139 -8138 318 0
8139 -317 0
-8140 8139 0
-8140 -317 0
8140 -8139 317 0
8140 -316 0
-8141 8140 0
-8141 -316 0
8141 -8140 316 0
8141 -315 0
-8142 8141 0
-8142 -315 0
8142 -8141 315 0
8142 -314 0
-8143 8142 0
-8143 -314 0
8143 -8142 314 0
8143 -313 0
-8144 8143 0
-8144 -313 0
8144 -8143 313 0
8144 -312 0
-8145 8144 0
-8145 -312 0
8145 -8144 312 0
8145 -5375 0
-8146 8145 0
-8146 -5375 0
8146 -8145 5375 0
8146 -5374 0
-8147 8146 0
-8147 -5374 0
8147 -8146 5374 0
8147 -5373 0
-8148 8147 0
-8148 -5373 0
8148 -8147 5373 0
8148 -5372 0
-8149 8148 0
-8149 -5372 0
8149 -8148 5372 0
8149 -5392 0
-8150 8149 0
-8150 -5392 0
8150 -8149 5392 0
8150 -5391 0
-8151 8150 0
-8151 -5391 0
8151 -8150 5391 0
8151 -5390 0
-8152 8151 0
-8152 -5390 0
8152 -8151 5390 0
8152 -5389 0
-8153 8152 0
-8153 -5389 0
8153 -8152 5389 0
8153 -5388 0
-8154 8153 0
-8154 -5388 0
8154 -8153 5388 0
8154 -5387 0
-8155 8154 0
-8155 -5387 0
8155 -8154 5387 0
8155 -5386 0
-8156 8155 0
-8156 -5386 0
8156 -8155 5386 0
8156 -5385 0
-8157 8156 0
-8157 -5385 0
8157 -8156 5385 0
8157 -5384 0
-8158 8157 0
-8158 -5384 0
8158 -8157 5384 0
8158 -5383 0
-8159 8158 0
-8159 -5383 0
8159 -8158 5383 0
8159 -5382 0
-8160 8159 0
-8160 -5382 0
8160 -8159 5382 0
8160 -5381 0
-8161 8160 0
-8161 -5381 0
8161 -8160 5381 0
8161 -5380 0
-8162 8161 0
-8162 -5380 0
8162 -8161 5380 0
8162 -5379 0
-8163 8162 0
-8163 -5379 0
8163 -8162 5379 0
8163 -5378 0
-8164 8163 0
-8164 -5378 0
8164 -8163 5378 0
8164 -5377 0
-8165 8164 0
-8165 -5377 0
8165 -8164 5377 0
8165 -5376 0
-8166 8165 0
-8166 -5376 0
8166 -8165 5376 0
8166 -93 0
-8167 8166 0
-8167 -93 0
8167 -8166 93 0
-8168 89 0
-8168 85 0
8168 -89 -85 0
-8169 90 0
-8169 86 0
8169 -90 -86 0
-8170 91 0
-8170 87 0
8170 -91 -87 0
-8171 92 0
-8171 88 0
8171 -92 -88 0
-8172 93 0
-8172 89 0
8172 -93 -89 0
-8173 94 0
-8173 90 0
8173 -94 -90 0
-8069 0
-8168 0
-8169 0
-8170 0
-8171 0
-8172 0
-8173 0
-8125 0
-8025 0
1 -402 0
-402 -401 0
-8174 -402 0
-8174 -401 0
8174 402 401 0
8174 -400 0
-8175 8174 0
-8175 -400 0
8175 -8174 400 0
8175 -399 0
-8176 8175 0
-8176 -399 0
8176 -8175 399 0
8176 -398 0
-8177 8176 0
-8177 -398 0
8177 -8176 398 0
8177 -418 0
-8178 8177 0
-8178 -418 0
8178 -8177 418 0
8178 -417 0
-8179 8178 0
-8179 -417 0
8179 -8178 417 0
8179 -416 0
-8180 8179 0
-8180 -416 0
8180 -8179 416 0
8180 -415 0
-8181 8180 0
-8181 -415 0
8181 -8180 415 0
8181 -414 0
-8182 8181 0
-8182 -414 0
8182 -8181 414 0
8182 -413 0
-8183 8182 0
-8183 -413 0
8183 -8182 413 0
8183 -412 0
-8184 8183 0
-8184 -412 0
8184 -8183 412 0
8184 -411 0
-8185 8184 0
-8185 -411 0
8185 -8184 411 0
8185 -410 0
-8186 8185 0
-8186 -410 0
8186 -8185 410 0
8186 -409 0
-8187 8186 0
-8187 -409 0
8187 -8186 409 0
8187 -408 0
-8188 8187 0
-8188 -408 0
8188 -8187 408 0
8188 -407 0
-8189 8188 0
-8189 -407 0
8189 -8188 407 0
8189 -406 0
-8190 8189 0
-8190 -406 0
8190 -8189 406 0
8190 -405 0
-8191 8190 0
-8191 -405 0
8191 -8190 405 0
8191 -404 0
-8192 8191 0
-8192 -404 0
8192 -8191 404 0
8192 -403 0
-8193 8192 0
-8193 -403 0
8193 -8192 403 0
8193 -5445 0
-8194 8193 0
-8194 -5445 0
8194 -8193 5445 0
8194 -5444 0
-8195 8194 0
-8195 -5444 0
8195 -8194 5444 0
8195 -5443 0
-8196 8195 0
-8196 -5443 0
8196 -8195 5443 0
8196 -5442 0
-8197 8196 0
-8197 -5442 0
8197 -8196 5442 0
8197 -5441 0
-8198 8197 0
-8198 -5441 0
8198 -8197 5441 0
8198 -5461 0
-8199 8198 0
-8199 -5461 0
8199 -8198 5461 0
8199 -5460 0
-8200 8199 0
-8200 -5460 0
8200 -8199 5460 0
8200 -5459 0
-8201 8200 0
-8201 -5459 0
8201 -8200 5459 0
8201 -5458 0
-8202 8201 0
-8202 -5458 0
8202 -8201 5458 0
8202 -5457 0
-8203 8202 0
-8203 -5457 0
8203 -8202 5457 0
8203 -5456 0
-8204 8203 0
-8204 -5456 0
8204 -8203 5456 0
8204 -5455 0
-8205 8204 0
-8205 -5455 0
8205 -8204 5455 0
8205 -5454 0
-8206 8205 0
-8206 -5454 0
8206 -8205 5454 0
8206 -5453 0
-8207 8206 0
-8207 -5453 0
8207 -8206 5453 0
8207 -5452 0
-8208 8207 0
-8208 -5452 0
8208 -8207 5452 0
8208 -5451 0
-8209 8208 0
-8209 -5451 0
8209 -8208 5451 0
8209 -5450 0
-8210 8209 0
-8210 -5450 0
8210 -8209 5450 0
8210 -5449 0
-8211 8210 0
-8211 -5449 0
8211 -8210 5449 0
8211 -5448 0
-8212 8211 0
-8212 -5448 0
8212 -8211 5448 0
8212 -5447 0
-8213 8212 0
-8213 -5447 0
8213 -8212 5447 0
8213 -5446 0
-8214 8213 0
-8214 -5446 0
8214 -8213 5446 0
8214 -86 0
-8215 8214 0
-8215 -86 0
8215 -8214 86 0
-8216 90 0
-8216 85 0
8216 -90 -85 0
-8217 91 0
-8217 86 0
8217 -91 -86 0
-8218 92 0
-8218 87 0
8218 -92 -87 0
-8219 93 0
-8219 88 0
8219 -93 -88 0
-8220 94 0
-8220 89 0
8220 -94 -89 0
-8119 0
-8019 0
-8216 0
-8217 0
-8218 0
-8219 0
-8220 0
-8173 0
-8075 0
1 -492 0
-492 -491 0
-8221 -492 0
-8221 -491 0
8221 492 491 0
8221 -490 0
-8222 8221 0
-8222 -490 0
8222 -8221 490 0
8222 -489 0
-8223 8222 0
-8223 -489 0
8223 -8222 489 0
8223 -488 0
-8224 8223 0
-8224 -488 0
8224 -8223 488 0
8224 -487 0
-8225 8224 0
-8225 -487 0
8225 -8224 487 0
8225 -507 0
-8226 8225 0
-8226 -507 0
8226 -8225 507 0
8226 -506 0
-8227 8226 0
-8227 -506 0
8227 -8226 506 0
8227 -505 0
-8228 8227 0
-8228 -505 0
8228 -8227 505 0
8228 -504 0
-8229 8228 0
-8229 -504 0
8229 -8228 504 0
8229 -503 0
-8230 8229 0
-8230 -503 0
8230 -8229 503 0
8230 -502 0
-8231 8230 0
-8231 -502 0
8231 -8230 502 0
8231 -501 0
-8232 8231 0
-8232 -501 0
8232 -8231 501 0
8232 -500 0
-8233 8232 0
-8233 -500 0
8233 -8232 500 0
8233 -499 0
-8234 8233 0
-8234 -499 0
8234 -8233 499 0
8234 -498 0
-8235 8234 0
-8235 -498 0
8235 -8234 498 0
8235 -497 0
-8236 8235 0
-8236 -497 0
8236 -8235 497 0
8236 -496 0
-8237 8236 0
-8237 -496 0
8237 -8236 496 0
8237 -495 0
-8238 8237 0
-8238 -495 0
8238 -8237 495 0
8238 -494 0
-8239 8238 0
-8239 -494 0
8239 -8238 494 0
8239 -493 0
-8240 8239 0
-8240 -493 0
8240 -8239 493 0
8240 -5514 0
-8241 8240 0
-8241 -5514 0
8241 -8240 5514 0
8241 -5513 0
-8242 8241 0
-8242 -5513 0
8242 -8241 5513 0
8242 -5512 0
-8243 8242 0
-8243 -5512 0
8243 -8242 5512 0
8243 -5511 0
-8244 8243 0
-8244 -5511 0
8244 -8243 5511 0
8244 -5510 0
-8245 8244 0
-8245 -5510 0
8245 -8244 5510 0
8245 -5509 0
-8246 8245 0
-8246 -5509 0
8246 -8245 5509 0
8246 -5529 0
-8247 8246 0
-8247 -5529 0
8247 -8246 5529 0
8247 -5528 0
-8248 8247 0
-8248 -5528 0
8248 -8247 5528 0
8248 -5527 0
-8249 8248 0
-8249 -5527 0
8249 -8248 5527 0
8249 -5526 0
-8250 8249 0
-8250 -5526 0
8250 -8249 5526 0
8250 -5525 0
-8251 8250 0
-8251 -5525 0
8251 -8250 5525 0
8251 -5524 0
-8252 8251 0
-8252 -5524 0
8252 -8251 5524 0
8252 -5523 0
-8253 8252 0
-8253 -5523 0
8253 -8252 5523 0
8253 -5522 0
-8254 8253 0
-8254 -5522 0
8254 -8253 5522 0
8254 -5521 0
-8255 8254 0
-8255 -5521 0
8255 -8254 5521 0
8255 -5520 0
-8256 8255 0
-8256 -5520 0
8256 -8255 5520 0
8256 -5519 0
-8257 8256 0
-8257 -5519 0
8257 -8256 5519 0
8257 -5518 0
-8258 8257 0
-8258 -5518 0
8258 -8257 5518 0
8258 -5517 0
-8259 8258 0
-8259 -5517 0
8259 -8258 5517 0
8259 -5516 0
-8260 8259 0
-8260 -5516 0
8260 -8259 5516 0
8260 -5515 0
-8261 8260 0
-8261 -5515 0
8261 -8260 5515 0
8261 -92 0
-8262 8261 0
-8262 -92 0
8262 -8261 92 0
-8263 91 0
-8263 85 0
8263 -91 -85 0
-8264 92 0
-8264 86 0
8264 -92 -86 0
-8265 93 0
-8265 87 0
8265 -93 -87 0
-8266 94 0
-8266 88 0
8266 -94 -88 0
-8168 0
-8070 0
-8263 0
-8264 0
-8265 0
-8266 0
-8220 0
-8124 0
-8024 0
1 -581 0
-581 -580 0
-8267 -581 0
-8267 -580 0
8267 581 580 0
8267 -579 0
-8268 8267 0
-8268 -579 0
8268 -8267 579 0
8268 -578 0
-8269 8268 0
-8269 -578 0
8269 -8268 578 0
8269 -577 0
-8270 8269 0
-8270 -577 0
8270 -8269 577 0
8270 -576 0
-8271 8270 0
-8271 -576 0
8271 -8270 576 0
8271 -575 0
-8272 8271 0
-8272 -575 0
8272 -8271 575 0
8272 -595 0
-8273 8272 0
-8273 -595 0
8273 -8272 595 0
8273 -594 0
-8274 8273 0
-8274 -594 0
8274 -8273 594 0
8274 -593 0
-8275 8274 0
-8275 -593 0
8275 -8274 593 0
8275 -592 0
-8276 8275 0
-8276 -592 0
8276 -8275 592 0
8276 -591 0
-8277 8276 0
-8277 -591 0
8277 -8276 591 0
8277 -590 0
-8278 8277 0
-8278 -590 0
8278 -8277 590 0
8278 -589 0
-8279 8278 0
-8279 -589 0
8279 -8278 589 0
8279 -588 0
-8280 8279 0
-8280 -588 0
8280 -8279 588 0
8280 -587 0
-8281 8280 0
-8281 -587 0
8281 -8280 587 0
8281 -586 0
-8282 8281 0
-8282 -586 0
8282 -8281 586 0
8282 -585 0
-8283 8282 0
-8283 -585 0
8283 -8282 585 0
8283 -584 0
-8284 8283 0
-8284 -584 0
8284 -8283 584 0
8284 -583 0
-8285 8284 0
-8285 -583 0
8285 -8284 583 0
8285 -582 0
-8286 8285 0
-8286 -582 0
8286 -8285 582 0
8286 -5582 0
-8287 8286 0
-8287 -5582 0
8287 -8286 5582 0
8287 -5581 0
-8288 8287 0
-8288 -5581 0
8288 -8287 5581 0
8288 -5580 0
-8289 8288 0
-8289 -5580 0
8289 -8288 5580 0
8289 -5579 0
-8290 8289 0
-8290 -5579 0
8290 -8289 5579 0
8290 -5578 0
-8291 8290 0
-8291 -5578 0
8291 -8290 5578 0
8291 -5577 0
-8292 8291 0
-8292 -5577 0
8292 -8291 5577 0
8292 -5576 0
-8293 8292 0
-8293 -5576 0
8293 -8292 5576 0
8293 -5596 0
-8294 8293 0
-8294 -5596 0
8294 -8293 5596 0
8294 -5595 0
-8295 8294 0
-8295 -5595 0
8295 -8294 5595 0
8295 -5594 0
-8296 8295 0
-8296 -5594 0
8296 -8295 5594 0
8296 -5593 0
-8297 8296 0
-8297 -5593 0
8297 -8296 5593 0
8297 -5592 0
-8298 8297 0
-8298 -5592 0
8298 -8297 5592 0
8298 -5591 0
-8299 8298 0
-8299 -5591 0
8299 -8298 5591 0
8299 -5590 0
-8300 8299 0
-8300 -5590 0
8300 -8299 5590 0
8300 -5589 0
-8301 8300 0
-8301 -5589 0
8301 -8300 5589 0
8301 -5588 0
-8302 8301 0
-8302 -5588 0
8302 -8301 5588 0
8302 -5587 0
-8303 8302 0
-8303 -5587 0
8303 -8302 5587 0
8303 -5586 0
-8304 8303 0
-8304 -5586 0
8304 -8303 5586 0
8304 -5585 0
-8305 8304 0
-8305 -5585 0
8305 -8304 5585 0
8305 -5584 0
-8306 8305 0
-8306 -5584 0
8306 -8305 5584 0
8306 -5583 0
-8307 8306 0
-8307 -5583 0
8307 -8306 5583 0
8307 -87 0
-8308 8307 0
-8308 -87 0
8308 -8307 87 0
-8309 92 0
-8309 85 0
8309 -92 -85 0
-8310 93 0
-8310 86 0
8310 -93 -86 0
-8311 94 0
-8311 87 0
8311 -94 -87 0
-8216 0
-8120 0
-8020 0
-8309 0
-8310 0
-8311 0
-8266 0
-8172 0
-8074 0
1 -669 0
-669 -668 0
-8312 -669 0
-8312 -668 0
8312 669 668 0
8312 -667 0
-8313 8312 0
-8313 -667 0
8313 -8312 667 0
8313 -666 0
-8314 8313 0
-8314 -666 0
8314 -8313 666 0
8314 -665 0
-8315 8314 0
-8315 -665 0
8315 -8314 665 0
8315 -664 0
-8316 8315 0
-8316 -664 0
8316 -8315 664 0
8316 -663 0
-8317 8316 0
-8317 -663 0
8317 -8316 663 0
8317 -662 0
-8318 8317 0
-8318 -662 0
8318 -8317 662 0
8318 -682 0
-8319 8318 0
-8319 -682 0
8319 -8318 682 0
8319 -681 0
-8320 8319 0
-8320 -681 0
8320 -8319 681 0
8320 -680 0
-8321 8320 0
-8321 -680 0
8321 -8320 680 0
8321 -679 0
-8322 8321 0
-8322 -679 0
8322 -8321 679 0
8322 -678 0
-8323 8322 0
-8323 -678 0
8323 -8322 678 0
8323 -677 0
-8324 8323 0
-8324 -677 0
8324 -8323 677 0
8324 -676 0
-8325 8324 0
-8325 -676 0
8325 -8324 676 0
8325 -675 0
-8326 8325 0
-8326 -675 0
8326 -8325 675 0
8326 -674 0
-8327 8326 0
-8327 -674 0
8327 -8326 674 0
8327 -673 0
-8328 8327 0
-8328 -673 0
8328 -8327 673 0
8328 -672 0
-8329 8328 0
-8329 -672 0
8329 -8328 672 0
8329 -671 0
-8330 8329 0
-8330 -671 0
8330 -8329 671 0
8330 -670 0
-8331 8330 0
-8331 -670 0
8331 -8330 670 0
8331 -5649 0
-8332 8331 0
-8332 -5649 0
8332 -8331 5649 0
8332 -5648 0
-8333 8332 0
-8333 -5648 0
8333 -8332 5648 0
8333 -5647 0
-8334 8333 0
-8334 -5647 0
8334 -8333 5647 0
8334 -5646 0
-8335 8334 0
-8335 -5646 0
8335 -8334 5646 0
8335 -5645 0
-8336 8335 0
-8336 -5645 0
8336 -8335 5645 0
8336 -5644 0
-8337 8336 0
-8337 -5644 0
8337 -8336 5644 0
8337 -5643 0
-8338 8337 0
-8338 -5643 0
8338 -8337 5643 0
8338 -5642 0
-8339 8338 0
-8339 -5642 0
8339 -8338 5642 0
8339 -5662 0
-8340 8339 0
-8340 -5662 0
8340 -8339 5662 0
8340 -5661 0
-8341 8340 0
-8341 -5661 0
8341 -8340 5661 0
8341 -5660 0
-8342 8341 0
-8342 -5660 0
8342 -8341 5660 0
8342 -5659 0
-8343 8342 0
-8343 -5659 0
8343 -8342 5659 0
8343 -5658 0
-8344 8343 0
-8344 -5658 0
8344 -8343 5658 0
8344 -5657 0
-8345 8344 0
-8345 -5657 0
8345 -8344 5657 0
8345 -5656 0
-8346 8345 0
-8346 -5656 0
8346 -8345 5656 0
8346 -5655 0
-8347 8346 0
-8347 -5655 0
8347 -8346 5655 0
8347 -5654 0
-8348 8347 0
-8348 -5654 0
8348 -8347 5654 0
8348 -5653 0
-8349 8348 0
-8349 -5653 0
8349 -8348 5653 0
8349 -5652 0
-8350 8349 0
-8350 -5652 0
8350 -8349 5652 0
8350 -5651 0
-8351 8350 0
-8351 -5651 0
8351 -8350 5651 0
8351 -5650 0
-8352 8351 0
-8352 -5650 0
8352 -8351 5650 0
8352 -91 0
-8353 8352 0
-8353 -91 0
8353 -8352 91 0
-8354 93 0
-8354 85 0
8354 -93 -85 0
-8355 94 0
-8355 86 0
8355 -94 -86 0
-8263 0
-8169 0
-8071 0
-8354 0
-8355 0
-8311 0
-8219 0
-8123 0
-8023 0
1 -756 0
-756 -755 0
-8356 -756 0
-8356 -755 0
8356 756 755 0
8356 -754 0
-8357 8356 0
-8357 -754 0
8357 -8356 754 0
8357 -753 0
-8358 8357 0
-8358 -753 0
8358 -8357 753 0
8358 -752 0
-8359 8358 0
-8359 -752 0
8359 -8358 752 0
8359 -751 0
-8360 8359 0
-8360 -751 0
8360 -8359 751 0
8360 -750 0
-8361 8360 0
-8361 -750 0
8361 -8360 750 0
8361 -749 0
-8362 8361 0
-8362 -749 0
8362 -8361 749 0
8362 -748 0
-8363 8362 0
-8363 -748 0
8363 -8362 748 0
8363 -768 0
-8364 8363 0
-8364 -768 0
8364 -8363 768 0
8364 -767 0
-8365 8364 0
-8365 -767 0
8365 -8364 767 0
8365 -766 0
-8366 8365 0
-8366 -766 0
8366 -8365 766 0
8366 -765 0
-8367 8366 0
-8367 -765 0
8367 -8366 765 0
8367 -764 0
-8368 8367 0
-8368 -764 0
8368 -8367 764 0
8368 -763 0
-8369 8368 0
-8369 -763 0
8369 -8368 763 0
8369 -762 0
-8370 8369 0
-8370 -762 0
8370 -8369 762 0
8370 -761 0
-8371 8370 0
-8371 -761 0
8371 -8370 761 0
8371 -760 0
-8372 8371 0
-8372 -760 0
8372 -8371 760 0
8372 -759 0
-8373 8372 0
-8373 -759 0
8373 -8372 759 0
8373 -758 0
-8374 8373 0
-8374 -758 0
8374 -8373 758 0
8374 -757 0
-8375 8374 0
-8375 -757 0
8375 -8374 757 0
8375 -5715 0
-8376 8375 0
-8376 -5715 0
8376 -8375 5715 0
8376 -5714 0
-8377 8376 0
-8377 -5714 0
8377 -8376 5714 0
8377 -5713 0
-8378 8377 0
-8378 -5713 0
8378 -8377 5713 0
8378 -5712 0
-8379 8378 0
-8379 -5712 0
8379 -8378 5712 0
8379 -5711 0
-8380 8379 0
-8380 -5711 0
8380 -8379 5711 0
8380 -5710 0
-8381 8380 0
-8381 -5710 0
8381 -8380 5710 0
8381 -5709 0
-8382 8381 0
-8382 -5709 0
8382 -8381 5709 0
8382 -5708 0
-8383 8382 0
-8383 -5708 0
8383 -8382 5708 0
8383 -5707 0
-8384 8383 0
-8384 -5707 0
8384 -8383 5707 0
8384 -5727 0
-8385 8384 0
-8385 -5727 0
8385 -8384 5727 0
8385 -5726 0
-8386 8385 0
-8386 -5726 0
8386 -8385 5726 0
8386 -5725 0
-8387 8386 0
-8387 -5725 0
8387 -8386 5725 0
8387 -5724 0
-8388 8387 0
-8388 -5724 0
8388 -8387 5724 0
8388 -5723 0
-8389 8388 0
-8389 -5723 0
8389 -8388 5723 0
8389 -5722 0
-8390 8389 0
-8390 -5722 0
8390 -8389 5722 0
8390 -5721 0
-8391 8390 0
-8391 -5721 0
8391 -8390 5721 0
8391 -5720 0
-8392 8391 0
-8392 -5720 0
8392 -8391 5720 0
8392 -5719 0
-8393 8392 0
-8393 -5719 0
8393 -8392 5719 0
8393 -5718 0
-8394 8393 0
-8394 -5718 0
8394 -8393 5718 0
8394 -5717 0
-8395 8394 0
-8395 -5717 0
8395 -8394 5717 0
8395 -5716 0
-8396 8395 0
-8396 -5716 0
8396 -8395 5716 0
8396 -88 0
-8397 8396 0
-8397 -88 0
8397 -8396 88 0
-8398 94 0
-8398 85 0
8398 -94 -85 0
-8309 0
-8217 0
-8121 0
-8021 0
-8398 0
-8355 0
-8265 0
-8171 0
-8073 0
1 -842 0
-842 -841 0
-8399 -842 0
-8399 -841 0
8399 842 841 0
8399 -840 0
-8400 8399 0
-8400 -840 0
8400 -8399 840 0
8400 -839 0
-8401 8400 0
-8401 -839 0
8401 -8400 839 0
8401 -838 0
-8402 8401 0
-8402 -838 0
8402 -8401 838 0
8402 -837 0
-8403 8402 0
-8403 -837 0
8403 -8402 837 0
8403 -836 0
-8404 8403 0
-8404 -836 0
8404 -8403 836 0
8404 -835 0
-8405 8404 0
-8405 -835 0
8405 -8404 835 0
8405 -834 0
-8406 8405 0
-8406 -834 0
8406 -8405 834 0
8406 -833 0
-8407 8406 0
-8407 -833 0
8407 -8406 833 0
8407 -853 0
-8408 8407 0
-8408 -853 0
8408 -8407 853 0
8408 -852 0
-8409 8408 0
-8409 -852 0
8409 -8408 852 0
8409 -851 0
-8410 8409 0
-8410 -851 0
8410 -8409 851 0
8410 -850 0
-8411 8410 0
-8411 -850 0
8411 -8410 850 0
8411 -849 0
-8412 8411 0
-8412 -849 0
8412 -8411 849 0
8412 -848 0
-8413 8412 0
-8413 -848 0
8413 -8412 848 0
8413 -847 0
-8414 8413 0
-8414 -847 0
8414 -8413 847 0
8414 -846 0
-8415 8414 0
-8415 -846 0
8415 -8414 846 0
8415 -845 0
-8416 8415 0
-8416 -845 0
8416 -8415 845 0
8416 -844 0
-8417 8416 0
-8417 -844 0
8417 -8416 844 0
8417 -843 0
-8418 8417 0
-8418 -843 0
8418 -8417 843 0
8418 -5780 0
-8419 8418 0
-8419 -5780 0
8419 -8418 5780 0
8419 -5779 0
-8420 8419 0
-8420 -5779 0
8420 -8419 5779 0
8420 -5778 0
-8421 8420 0
-8421 -5778 0
8421 -8420 5778 0
8421 -5777 0
-8422 8421 0
-8422 -5777 0
8422 -8421 5777 0
8422 -5776 0
-8423 8422 0
-8423 -5776 0
8423 -8422 5776 0
8423 -5775 0
-8424 8423 0
-8424 -5775 0
8424 -8423 5775 0
8424 -5774 0
-8425 8424 0
-8425 -5774 0
8425 -8424 5774 0
8425 -5773 0
-8426 8425 0
-8426 -5773 0
8426 -8425 5773 0
8426 -5772 0
-8427 8426 0
-8427 -5772 0
8427 -8426 5772 0
8427 -5771 0
-8428 8427 0
-8428 -5771 0
8428 -8427 5771 0
8428 -5791 0
-8429 8428 0
-8429 -5791 0
8429 -8428 5791 0
8429 -5790 0
-8430 8429 0
-8430 -5790 0
8430 -8429 5790 0
8430 -5789 0
-8431 8430 0
-8431 -5789 0
8431 -8430 5789 0
8431 -5788 0
-8432 8431 0
-8432 -5788 0
8432 -8431 5788 0
8432 -5787 0
-8433 8432 0
-8433 -5787 0
8433 -8432 5787 0
8433 -5786 0
-8434 8433 0
-8434 -5786 0
8434 -8433 5786 0
8434 -5785 0
-8435 8434 0
-8435 -5785 0
8435 -8434 5785 0
8435 -5784 0
-8436 8435 0
-8436 -5784 0
8436 -8435 5784 0
8436 -5783 0
-8437 8436 0
-8437 -5783 0
8437 -8436 5783 0
8437 -5782 0
-8438 8437 0
-8438 -5782 0
8438 -8437 5782 0
8438 -5781 0
-8439 8438 0
-8439 -5781 0
8439 -8438 5781 0
8439 -90 0
-8440 8439 0
-8440 -90 0
8440 -8439 90 0
-8354 0
-8264 0
-8170 0
-8072 0
-8398 0
-8310 0
-8218 0
-8122 0
-8022 0
1 -927 0
-927 -926 0
-8441 -927 0
-8441 -926 0
8441 927 926 0
8441 -925 0
-8442 8441 0
-8442 -925 0
8442 -8441 925 0
8442 -924 0
-8443 8442 0
-8443 -924 0
8443 -8442 924 0
8443 -923 0
-8444 8443 0
-8444 -923 0
8444 -8443 923 0
8444 -922 0
-8445 8444 0
-8445 -922 0
8445 -8444 922 0
8445 -921 0
-8446 8445 0
-8446 -921 0
8446 -8445 921 0
8446 -920 0
-8447 8446 0
-8447 -920 0
8447 -8446 920 0
8447 -919 0
-8448 8447 0
-8448 -919 0
8448 -8447 919 0
8448 -918 0
-8449 8448 0
-8449 -918 0
8449 -8448 918 0
8449 -917 0
-8450 8449 0
-8450 -917 0
8450 -8449 917 0
8450 -937 0
-8451 8450 0
-8451 -937 0
8451 -8450 937 0
8451 -936 0
-8452 8451 0
-8452 -936 0
8452 -8451 936 0
8452 -935 0
-8453 8452 0
-8453 -935 0
8453 -8452 935 0
8453 -934 0
-8454 8453 0
-8454 -934 0
8454 -8453 934 0
8454 -933 0
-8455 8454 0
-8455 -933 0
8455 -8454 933 0
8455 -932 0
-8456 8455 0
-8456 -932 0
8456 -8455 932 0
8456 -931 0
-8457 8456 0
-8457 -931 0
8457 -8456 931 0
8457 -930 0
-8458 8457 0
-8458 -930 0
8458 -8457 930 0
8458 -929 0
-8459 8458 0
-8459 -929 0
8459 -8458 929 0
8459 -928 0
-8460 8459 0
-8460 -928 0
8460 -8459 928 0
8460 -5844 0
-8461 8460 0
-8461 -5844 0
8461 -8460 5844 0
8461 -5843 0
-8462 8461 0
-8462 -5843 0
8462 -8461 5843 0
8462 -5842 0
-8463 8462 0
-8463 -5842 0
8463 -8462 5842 0
8463 -5841 0
-8464 8463 0
-8464 -5841 0
8464 -8463 5841 0
8464 -5840 0
-8465 8464 0
-8465 -5840 0
8465 -8464 5840 0
8465 -5839 0
-8466 8465 0
-8466 -5839 0
8466 -8465 5839 0
8466 -5838 0
-8467 8466 0
-8467 -5838 0
8467 -8466 5838 0
8467 -5837 0
-8468 8467 0
-8468 -5837 0
8468 -8467 5837 0
8468 -5836 0
-8469 8468 0
-8469 -5836 0
8469 -8468 5836 0
8469 -5835 0
-8470 8469 0
-8470 -5835 0
8470 -8469 5835 0
8470 -5834 0
-8471 8470 0
-8471 -5834 0
8471 -8470 5834 0
8471 -5854 0
-8472 8471 0
-8472 -5854 0
8472 -8471 5854 0
8472 -5853 0
-8473 8472 0
-8473 -5853 0
8473 -8472 5853 0
8473 -5852 0
-8474 8473 0
-8474 -5852 0
8474 -8473 5852 0
8474 -5851 0
-8475 8474 0
-8475 -5851 0
8475 -8474 5851 0
8475 -5850 0
-8476 8475 0
-8476 -5850 0
8476 -8475 5850 0
8476 -5849 0
-8477 8476 0
-8477 -5849 0
8477 -8476 5849 0
8477 -5848 0
-8478 8477 0
-8478 -5848 0
8478 -8477 5848 0
8478 -5847 0
-8479 8478 0
-8479 -5847 0
8479 -8478 5847 0
8479 -5846 0
-8480 8479 0
-8480 -5846 0
8480 -8479 5846 0
8480 -5845 0
-8481 8480 0
-8481 -5845 0
8481 -8480 5845 0
8481 -89 0
-8482 8481 0
-8482 -89 0
8482 -8481 89 0
-8483 -2 0
-8483 -3 0
8483 2 3 0
-8484 -2 0
-8484 -95 0
8484 2 95 0
-8485 8483 0
-8485 -3 0
8485 -8483 3 0
-8486 3 0
-8486 -8483 0
8486 -3 8483 0
-8487 8484 0
-8487 -8486 0
8487 -8484 8486 0
-8488 3 0
-8488 -8484 0
8488 -3 8484 0
-8489 -95 0
-8489 -8488 0
8489 95 8488 0
-8490 3 0
-8490 95 0
8490 -3 -95 0
-8491 8485 0
-8491 -4 0
8491 -8485 4 0
-8492 4 0
-8492 -8485 0
8492 -4 8485 0
-8493 8487 0
-8493 -8492 0
8493 -8487 8492 0
-8494 4 0
-8494 -8487 0
8494 -4 8487 0
-8495 8489 0
-8495 -8494 0
8495 -8489 8494 0
-8496 4 0
-8496 -8489 0
8496 -4 8489 0
-8497 -8490 0
-8497 -8496 0
8497 8490 8496 0
-8498 4 0
-8498 8490 0
8498 -4 -8490 0
-8499 8491 0
-8499 -4 0
8499 -8491 4 0
-8500 4 0
-8500 -8491 0
8500 -4 8491 0
-8501 8493 0
-8501 -8500 0
8501 -8493 8500 0
-8502 4 0
-8502 -8493 0
8502 -4 8493 0
-8503 8495 0
-8503 -8502 0
8503 -8495 8502 0
-8504 4 0
-8504 -8495 0
8504 -4 8495 0
-8505 8497 0
-8505 -8504 0
8505 -8497 8504 0
-8506 4 0
-8506 -8497 0
8506 -4 8497 0
-8507 -8498 0
-8507 -8506 0
8507 8498 8506 0
-8508 4 0
-8508 8498 0
8508 -4 -8498 0
-8509 8499 0
-8509 -5 0
8509 -8499 5 0
-8510 5 0
-8510 -8499 0
8510 -5 8499 0
-8511 8501 0
-8511 -8510 0
8511 -8501 8510 0
-8512 5 0
-8512 -8501 0
8512 -5 8501 0
-8513 8503 0
-8513 -8512 0
8513 -8503 8512 0
-8514 5 0
-8514 -8503 0
8514 -5 8503 0
-8515 8505 0
-8515 -8514 0
8515 -8505 8514 0
-8516 5 0
-8516 -8505 0
8516 -5 8505 0
-8517 8507 0
-8517 -8516 0
8517 -8507 8516 0
-8518 5 0
-8518 -8507 0
8518 -5 8507 0
-8519 -8508 0
-8519 -8518 0
8519 8508 8518 0
-8520 5 0
-8520 8508 0
8520 -5 -8508 0
-8521 8509 0
-8521 -5 0
8521 -8509 5 0
-8522 5 0
-8522 -8509 0
8522 -5 8509 0
-8523 8511 0
-8523 -8522 0
8523 -8511 8522 0
-8524 5 0
-8524 -8511 0
8524 -5 8511 0
-8525 8513 0
-8525 -8524 0
8525 -8513 8524 0
-8526 5 0
-8526 -8513 0
8526 -5 8513 0
-8527 8515 0
-8527 -8526 0
8527 -8515 8526 0
-8528 5 0
-8528 -8515 0
8528 -5 8515 0
-8529 8517 0
-8529 -8528 0
8529 -8517 8528 0
-8530 5 0
-8530 -8517 0
8530 -5 8517 0
-8531 8519 0
-8531 -8530 0
8531 -8519 8530 0
-8532 5 0
-8532 -8519 0
8532 -5 8519 0
-8533 -8520 0
-8533 -8532 0
8533 8520 8532 0
-8534 5 0
-8534 8520 0
8534 -5 -8520 0
-8535 8521 0
-8535 -6 0
8535 -8521 6 0
-8536 6 0
-8536 -8521 0
8536 -6 8521 0
-8537 8523 0
-8537 -8536 0
8537 -8523 8536 0
-8538 6 0
-8538 -8523 0
8538 -6 8523 0
-8539 8525 0
-8539 -8538 0
8539 -8525 8538 0
-8540 6 0
-8540 -8525 0
8540 -6 8525 0
-8541 8527 0
-8541 -8540 0
8541 -8527 8540 0
-8542 6 0
-8542 -8527 0
8542 -6 8527 0
-8543 8529 0
-8543 -8542 0
8543 -8529 8542 0
-8544 6 0
-8544 -8529 0
8544 -6 8529 0
-8545 8531 0
-8545 -8544 0
8545 -8531 8544 0
-8546 6 0
-8546 -8531 0
8546 -6 8531 0
-8547 8533 0
-8547 -8546 0
8547 -8533 8546 0
-8548 6 0
-8548 -8533 0
8548 -6 8533 0
-8549 -8534 0
-8549 -8548 0
8549 8534 8548 0
-8550 8535 0
-8550 -6 0
8550 -8535 6 0
-8551 6 0
-8551 -8535 0
8551 -6 8535 0
-8552 8537 0
-8552 -8551 0
8552 -8537 8551 0
-8553 6 0
-8553 -8537 0
8553 -6 8537 0
-8554 8539 0
-8554 -8553 0
8554 -8539 8553 0
-8555 6 0
-8555 -8539 0
8555 -6 8539 0
-8556 8541 0
-8556 -8555 0
8556 -8541 8555 0
-8557 6 0
-8557 -8541 0
8557 -6 8541 0
-8558 8543 0
-8558 -8557 0
8558 -8543 8557 0
-8559 6 0
-8559 -8543 0
8559 -6 8543 0
-8560 8545 0
-8560 -8559 0
8560 -8545 8559 0
-8561 6 0
-8561 -8545 0
8561 -6 8545 0
-8562 8547 0
-8562 -8561 0
8562 -8547 8561 0
-8563 6 0
-8563 -8547 0
8563 -6 8547 0
-8564 8549 0
-8564 -8563 0
8564 -8549 8563 0
-8565 8550 0
-8565 -7 0
8565 -8550 7 0
-8566 7 0
-8566 -8550 0
8566 -7 8550 0
-8567 8552 0
-8567 -8566 0
8567 -8552 8566 0
-8568 7 0
-8568 -8552 0
8568 -7 8552 0
-8569 8554 0
-8569 -8568 0
8569 -8554 8568 0
-8570 7 0
-8570 -8554 0
8570 -7 8554 0
-8571 8556 0
-8571 -8570 0
8571 -8556 8570 0
-8572 7 0
-8572 -8556 0
8572 -7 8556 0
-8573 8558 0
-8573 -8572 0
8573 -8558 8572 0
-8574 7 0
-8574 -8558 0
8574 -7 8558 0
-8575 8560 0
-8575 -8574 0
8575 -8560 8574 0
-8576 7 0
-8576 -8560 0
8576 -7 8560 0
-8577 8562 0
-8577 -8576 0
8577 -8562 8576 0
-8578 7 0
-8578 -8562 0
8578 -7 8562 0
-8579 8564 0
-8579 -8578 0
8579 -8564 8578 0
-8580 8565 0
-8580 -7 0
8580 -8565 7 0
-8581 7 0
-8581 -8565 0
8581 -7 8565 0
-8582 8567 0
-8582 -8581 0
8582 -8567 8581 0
-8583 7 0
-8583 -8567 0
8583 -7 8567 0
-8584 8569 0
-8584 -8583 0
8584 -8569 8583 0
-8585 7 0
-8585 -8569 0
8585 -7 8569 0
-8586 8571 0
-8586 -8585 0
8586 -8571 8585 0
-8587 7 0
-8587 -8571 0
8587 -7 8571 0
-8588 8573 0
-8588 -8587 0
8588 -8573 8587 0
-8589 7 0
-8589 -8573 0
8589 -7 8573 0
-8590 8575 0
-8590 -8589 0
8590 -8575 8589 0
-8591 7 0
-8591 -8575 0
8591 -7 8575 0
-8592 8577 0
-8592 -8591 0
8592 -8577 8591 0
-8593 7 0
-8593 -8577 0
8593 -7 8577 0
-8594 8579 0
-8594 -8593 0
8594 -8579 8593 0
-8595 8580 0
-8595 -8 0
8595 -8580 8 0
-8596 8 0
-8596 -8580 0
8596 -8 8580 0
-8597 8582 0
-8597 -8596 0
8597 -8582 8596 0
-8598 8 0
-8598 -8582 0
8598 -8 8582 0
-8599 8584 0
-8599 -8598 0
8599 -8584 8598 0
-8600 8 0
-8600 -8584 0
8600 -8 8584 0
-8601 8586 0
-8601 -8600 0
8601 -8586 8600 0
-8602 8 0
-8602 -8586 0
8602 -8 8586 0
-8603 8588 0
-8603 -8602 0
8603 -8588 8602 0
-8604 8 0
-8604 -8588 0
8604 -8 8588 0
-8605 8590 0
-8605 -8604 0
8605 -8590 8604 0
-8606 8 0
-8606 -8590 0
8606 -8 8590 0
-8607 8592 0
-8607 -8606 0
8607 -8592 8606 0
-8608 8 0
-8608 -8592 0
8608 -8 8592 0
-8609 8594 0
-8609 -8608 0
8609 -8594 8608 0
-8610 8595 0
-8610 -8 0
8610 -8595 8 0
-8611 8 0
-8611 -8595 0
8611 -8 8595 0
-8612 8597 0
-8612 -8611 0
8612 -8597 8611 0
-8613 8 0
-8613 -8597 0
8613 -8 8597 0
-8614 8599 0
-8614 -8613 0
8614 -8599 8613 0
-8615 8 0
-8615 -8599 0
8615 -8 8599 0
-8616 8601 0
-8616 -8615 0
8616 -8601 8615 0
-8617 8 0
-8617 -8601 0
8617 -8 8601 0
-8618 8603 0
-8618 -8617 0
8618 -8603 8617 0
-8619 8 0
-8619 -8603 0
8619 -8 8603 0
-8620 8605 0
-8620 -8619 0
8620 -8605 8619 0
-8621 8 0
-8621 -8605 0
8621 -8 8605 0
-8622 8607 0
-8622 -8621 0
8622 -8607 8621 0
-8623 8 0
-8623 -8607 0
8623 -8 8607 0
-8624 8609 0
-8624 -8623 0
8624 -8609 8623 0
-8625 8610 0
-8625 -9 0
8625 -8610 9 0
-8626 9 0
-8626 -8610 0
8626 -9 8610 0
-8627 8612 0
-8627 -8626 0
8627 -8612 8626 0
-8628 9 0
-8628 -8612 0
8628 -9 8612 0
-8629 8614 0
-8629 -8628 0
8629 -8614 8628 0
-8630 9 0
-8630 -8614 0
8630 -9 8614 0
-8631 8616 0
-8631 -8630 0
8631 -8616 8630 0
-8632 9 0
-8632 -8616 0
8632 -9 8616 0
-8633 8618 0
-8633 -8632 0
8633 -8618 8632 0
-8634 9 0
-8634 -8618 0
8634 -9 8618 0
-8635 8620 0
-8635 -8634 0
8635 -8620 8634 0
-8636 9 0
-8636 -8620 0
8636 -9 8620 0
-8637 8622 0
-8637 -8636 0
8637 -8622 8636 0
-8638 9 0
-8638 -8622 0
8638 -9 8622 0
-8639 8624 0
-8639 -8638 0
8639 -8624 8638 0
-8640 8625 0
-8640 -9 0
8640 -8625 9 0
-8641 9 0
-8641 -8625 0
8641 -9 8625 0
-8642 8627 0
-8642 -8641 0
8642 -8627 8641 0
-8643 9 0
-8643 -8627 0
8643 -9 8627 0
-8644 8629 0
-8644 -8643 0
8644 -8629 8643 0
-8645 9 0
-8645 -8629 0
8645 -9 8629 0
-8646 8631 0
-8646 -8645 0
8646 -8631 8645 0
-8647 9 0
-8647 -8631 0
8647 -9 8631 0
-8648 8633 0
-8648 -8647 0
8648 -8633 8647 0
-8649 9 0
-8649 -8633 0
8649 -9 8633 0
-8650 8635 0
-8650 -8649 0
8650 -8635 8649 0
-8651 9 0
-8651 -8635 0
8651 -9 8635 0
-8652 8637 0
-8652 -8651 0
8652 -8637 8651 0
-8653 9 0
-8653 -8637 0
8653 -9 8637 0
-8654 8639 0
-8654 -8653 0
8654 -8639 8653 0
-8655 8640 0
-8655 -10 0
8655 -8640 10 0
-8656 10 0
-8656 -8640 0
8656 -10 8640 0
-8657 8642 0
-8657 -8656 0
8657 -8642 8656 0
-8658 10 0
-8658 -8642 0
8658 -10 8642 0
-8659 8644 0
-8659 -8658 0
8659 -8644 8658 0
-8660 10 0
-8660 -8644 0
8660 -10 8644 0
-8661 8646 0
-8661 -8660 0
8661 -8646 8660 0
-8662 10 0
-8662 -8646 0
8662 -10 8646 0
-8663 8648 0
-8663 -8662 0
8663 -8648 8662 0
-8664 10 0
-8664 -8648 0
8664 -10 8648 0
-8665 8650 0
-8665 -8664 0
8665 -8650 8664 0
-8666 10 0
-8666 -8650 0
8666 -10 8650 0
-8667 8652 0
-8667 -8666 0
8667 -8652 8666 0
-8668 10 0
-8668 -8652 0
8668 -10 8652 0
-8669 8654 0
-8669 -8668 0
8669 -8654 8668 0
-8670 8655 0
-8670 -10 0
8670 -8655 10 0
-8671 10 0
-8671 -8655 0
8671 -10 8655 0
-8672 8657 0
-8672 -8671 0
8672 -8657 8671 0
-8673 10 0
-8673 -8657 0
8673 -10 8657 0
-8674 8659 0
-8674 -8673 0
8674 -8659 8673 0
-8675 10 0
-8675 -8659 0
8675 -10 8659 0
-8676 8661 0
-8676 -8675 0
8676 -8661 8675 0
-8677 10 0
-8677 -8661 0
8677 -10 8661 0
-8678 8663 0
-8678 -8677 0
8678 -8663 8677 0
-8679 10 0
-8679 -8663 0
8679 -10 8663 0
-8680 8665 0
-8680 -8679 0
8680 -8665 8679 0
-8681 10 0
-8681 -8665 0
8681 -10 8665 0
-8682 8667 0
-8682 -8681 0
8682 -8667 8681 0
-8683 10 0
-8683 -8667 0
8683 -10 8667 0
-8684 8669 0
-8684 -8683 0
8684 -8669 8683 0
-8685 8670 0
-8685 -11 0
8685 -8670 11 0
-8686 11 0
-8686 -8670 0
8686 -11 8670 0
-8687 8672 0
-8687 -8686 0
8687 -8672 8686 0
-8688 11 0
-8688 -8672 0
8688 -11 8672 0
-8689 8674 0
-8689 -8688 0
8689 -8674 8688 0
-8690 11 0
-8690 -8674 0
8690 -11 8674 0
-8691 8676 0
-8691 -8690 0
8691 -8676 8690 0
-8692 11 0
-8692 -8676 0
8692 -11 8676 0
-8693 8678 0
-8693 -8692 0
8693 -8678 8692 0
-8694 11 0
-8694 -8678 0
8694 -11 8678 0
-8695 8680 0
-8695 -8694 0
8695 -8680 8694 0
-8696 11 0
-8696 -8680 0
8696 -11 8680 0
-8697 8682 0
-8697 -8696 0
8697 -8682 8696 0
-8698 11 0
-8698 -8682 0
8698 -11 8682 0
-8699 8684 0
-8699 -8698 0
8699 -8684 8698 0
-8700 8685 0
-8700 -11 0
8700 -8685 11 0
-8701 11 0
-8701 -8685 0
8701 -11 8685 0
-8702 8687 0
-8702 -8701 0
8702 -8687 8701 0
-8703 11 0
-8703 -8687 0
8703 -11 8687 0
-8704 8689 0
-8704 -8703 0
8704 -8689 8703 0
-8705 11 0
-8705 -8689 0
8705 -11 8689 0
-8706 8691 0
-8706 -8705 0
8706 -8691 8705 0
-8707 11 0
-8707 -8691 0
8707 -11 8691 0
-8708 8693 0
-8708 -8707 0
8708 -8693 8707 0
-8709 11 0
-8709 -8693 0
8709 -11 8693 0
-8710 8695 0
-8710 -8709 0
8710 -8695 8709 0
-8711 11 0
-8711 -8695 0
8711 -11 8695 0
-8712 8697 0
-8712 -8711 0
8712 -8697 8711 0
-8713 11 0
-8713 -8697 0
8713 -11 8697 0
-8714 8699 0
-8714 -8713 0
8714 -8699 8713 0
-8715 8700 0
-8715 -12 0
8715 -8700 12 0
-8716 12 0
-8716 -8700 0
8716 -12 8700 0
-8717 8702 0
-8717 -8716 0
8717 -8702 8716 0
-8718 12 0
-8718 -8702 0
8718 -12 8702 0
-8719 8704 0
-8719 -8718 0
8719 -8704 8718 0
-8720 12 0
-8720 -8704 0
8720 -12 8704 0
-8721 8706 0
-8721 -8720 0
8721 -8706 8720 0
-8722 12 0
-8722 -8706 0
8722 -12 8706 0
-8723 8708 0
-8723 -8722 0
8723 -8708 8722 0
-8724 12 0
-8724 -8708 0
8724 -12 8708 0
-8725 8710 0
-8725 -8724 0
8725 -8710 8724 0
-8726 12 0
-8726 -8710 0
8726 -12 8710 0
-8727 8712 0
-8727 -8726 0
8727 -8712 8726 0
-8728 12 0
-8728 -8712 0
8728 -12 8712 0
-8729 8714 0
-8729 -8728 0
8729 -8714 8728 0
-8730 8715 0
-8730 -13 0
8730 -8715 13 0
-8731 13 0
-8731 -8715 0
8731 -13 8715 0
-8732 8717 0
-8732 -8731 0
8732 -8717 8731 0
-8733 13 0
-8733 -8717 0
8733 -13 8717 0
-8734 8719 0
-8734 -8733 0
8734 -8719 8733 0
-8735 13 0
-8735 -8719 0
8735 -13 8719 0
-8736 8721 0
-8736 -8735 0
8736 -8721 8735 0
-8737 13 0
-8737 -8721 0
8737 -13 8721 0
-8738 8723 0
-8738 -8737 0
8738 -8723 8737 0
-8739 13 0
-8739 -8723 0
8739 -13 8723 0
-8740 8725 0
-8740 -8739 0
8740 -8725 8739 0
-8741 13 0
-8741 -8725 0
8741 -13 8725 0
-8742 8727 0
-8742 -8741 0
8742 -8727 8741 0
-8743 13 0
-8743 -8727 0
8743 -13 8727 0
-8744 8729 0
-8744 -8743 0
8744 -8729 8743 0
-8745 8730 0
-8745 -14 0
8745 -8730 14 0
-8746 14 0
-8746 -8730 0
8746 -14 8730 0
-8747 8732 0
-8747 -8746 0
8747 -8732 8746 0
-8748 14 0
-8748 -8732 0
8748 -14 8732 0
-8749 8734 0
-8749 -8748 0
8749 -8734 8748 0
-8750 14 0
-8750 -8734 0
8750 -14 8734 0
-8751 8736 0
-8751 -8750 0
8751 -8736 8750 0
-8752 14 0
-8752 -8736 0
8752 -14 8736 0
-8753 8738 0
-8753 -8752 0
8753 -8738 8752 0
-8754 14 0
-8754 -8738 0
8754 -14 8738 0
-8755 8740 0
-8755 -8754 0
8755 -8740 8754 0
-8756 14 0
-8756 -8740 0
8756 -14 8740 0
-8757 8742 0
-8757 -8756 0
8757 -8742 8756 0
-8758 14 0
-8758 -8742 0
8758 -14 8742 0
-8759 8744 0
-8759 -8758 0
8759 -8744 8758 0
-8760 8745 0
-8760 -15 0
8760 -8745 15 0
-8761 15 0
-8761 -8745 0
8761 -15 8745 0
-8762 8747 0
-8762 -8761 0
8762 -8747 8761 0
-8763 15 0
-8763 -8747 0
8763 -15 8747 0
-8764 8749 0
-8764 -8763 0
8764 -8749 8763 0
-8765 15 0
-8765 -8749 0
8765 -15 8749 0
-8766 8751 0
-8766 -8765 0
8766 -8751 8765 0
-8767 15 0
-8767 -8751 0
8767 -15 8751 0
-8768 8753 0
-8768 -8767 0
8768 -8753 8767 0
-8769 15 0
-8769 -8753 0
8769 -15 8753 0
-8770 8755 0
-8770 -8769 0
8770 -8755 8769 0
-8771 15 0
-8771 -8755 0
8771 -15 8755 0
-8772 8757 0
-8772 -8771 0
8772 -8757 8771 0
-8773 15 0
-8773 -8757 0
8773 -15 8757 0
-8774 8759 0
-8774 -8773 0
8774 -8759 8773 0
-8775 8760 0
-8775 -16 0
8775 -8760 16 0
-8776 16 0
-8776 -8760 0
8776 -16 8760 0
-8777 8762 0
-8777 -8776 0
8777 -8762 8776 0
-8778 16 0
-8778 -8762 0
8778 -16 8762 0
-8779 8764 0
-8779 -8778 0
8779 -8764 8778 0
-8780 16 0
-8780 -8764 0
8780 -16 8764 0
-8781 8766 0
-8781 -8780 0
8781 -8766 8780 0
-8782 16 0
-8782 -8766 0
8782 -16 8766 0
-8783 8768 0
-8783 -8782 0
8783 -8768 8782 0
-8784 16 0
-8784 -8768 0
8784 -16 8768 0
-8785 8770 0
-8785 -8784 0
8785 -8770 8784 0
-8786 16 0
-8786 -8770 0
8786 -16 8770 0
-8787 8772 0
-8787 -8786 0
8787 -8772 8786 0
-8788 16 0
-8788 -8772 0
8788 -16 8772 0
-8789 8774 0
-8789 -8788 0
8789 -8774 8788 0
-8790 8775 0
-8790 -17 0
8790 -8775 17 0
-8791 17 0
-8791 -8775 0
8791 -17 8775 0
-8792 8777 0
-8792 -8791 0
8792 -8777 8791 0
-8793 17 0
-8793 -8777 0
8793 -17 8777 0
-8794 8779 0
-8794 -8793 0
8794 -8779 8793 0
-8795 17 0
-8795 -8779 0
8795 -17 8779 0
-8796 8781 0
-8796 -8795 0
8796 -8781 8795 0
-8797 17 0
-8797 -8781 0
8797 -17 8781 0
-8798 8783 0
-8798 -8797 0
8798 -8783 8797 0
-8799 17 0
-8799 -8783 0
8799 -17 8783 0
-8800 8785 0
-8800 -8799 0
8800 -8785 8799 0
-8801 17 0
-8801 -8785 0
8801 -17 8785 0
-8802 8787 0
-8802 -8801 0
8802 -8787 8801 0
-8803 17 0
-8803 -8787 0
8803 -17 8787 0
-8804 8789 0
-8804 -8803 0
8804 -8789 8803 0
-8805 8790 0
-8805 -18 0
8805 -8790 18 0
-8806 18 0
-8806 -8790 0
8806 -18 8790 0
-8807 8792 0
-8807 -8806 0
8807 -8792 8806 0
-8808 18 0
-8808 -8792 0
8808 -18 8792 0
-8809 8794 0
-8809 -8808 0
8809 -8794 8808 0
-8810 18 0
-8810 -8794 0
8810 -18 8794 0
-8811 8796 0
-8811 -8810 0
8811 -8796 8810 0
-8812 18 0
-8812 -8796 0
8812 -18 8796 0
-8813 8798 0
-8813 -8812 0
8813 -8798 8812 0
-8814 18 0
-8814 -8798 0
8814 -18 8798 0
-8815 8800 0
-8815 -8814 0
8815 -8800 8814 0
-8816 18 0
-8816 -8800 0
8816 -18 8800 0
-8817 8802 0
-8817 -8816 0
8817 -8802 8816 0
-8818 18 0
-8818 -8802 0
8818 -18 8802 0
-8819 8804 0
-8819 -8818 0
8819 -8804 8818 0
-8820 8805 0
-8820 -19 0
8820 -8805 19 0
-8821 19 0
-8821 -8805 0
8821 -19 8805 0
-8822 8807 0
-8822 -8821 0
8822 -8807 8821 0
-8823 19 0
-8823 -8807 0
8823 -19 8807 0
-8824 8809 0
-8824 -8823 0
8824 -8809 8823 0
-8825 19 0
-8825 -8809 0
8825 -19 8809 0
-8826 8811 0
-8826 -8825 0
8826 -8811 8825 0
-8827 19 0
-8827 -8811 0
8827 -19 8811 0
-8828 8813 0
-8828 -8827 0
8828 -8813 8827 0
-8829 19 0
-8829 -8813 0
8829 -19 8813 0
-8830 8815 0
-8830 -8829 0
8830 -8815 8829 0
-8831 19 0
-8831 -8815 0
8831 -19 8815 0
-8832 8817 0
-8832 -8831 0
8832 -8817 8831 0
-8833 19 0
-8833 -8817 0
8833 -19 8817 0
-8834 8819 0
-8834 -8833 0
8834 -8819 8833 0
-8835 8820 0
-8835 -20 0
8835 -8820 20 0
-8836 20 0
-8836 -8820 0
8836 -20 8820 0
-8837 8822 0
-8837 -8836 0
8837 -8822 8836 0
-8838 20 0
-8838 -8822 0
8838 -20 8822 0
-8839 8824 0
-8839 -8838 0
8839 -8824 8838 0
-8840 20 0
-8840 -8824 0
8840 -20 8824 0
-8841 8826 0
-8841 -8840 0
8841 -8826 8840 0
-8842 20 0
-8842 -8826 0
8842 -20 8826 0
-8843 8828 0
-8843 -8842 0
8843 -8828 8842 0
-8844 20 0
-8844 -8828 0
8844 -20 8828 0
-8845 8830 0
-8845 -8844 0
8845 -8830 8844 0
-8846 20 0
-8846 -8830 0
8846 -20 8830 0
-8847 8832 0
-8847 -8846 0
8847 -8832 8846 0
-8848 20 0
-8848 -8832 0
8848 -20 8832 0
-8849 8834 0
-8849 -8848 0
8849 -8834 8848 0
-8850 8835 0
-8850 -21 0
8850 -8835 21 0
-8851 21 0
-8851 -8835 0
8851 -21 8835 0
-8852 8837 0
-8852 -8851 0
8852 -8837 8851 0
-8853 21 0
-8853 -8837 0
8853 -21 8837 0
-8854 8839 0
-8854 -8853 0
8854 -8839 8853 0
-8855 21 0
-8855 -8839 0
8855 -21 8839 0
-8856 8841 0
-8856 -8855 0
8856 -8841 8855 0
-8857 21 0
-8857 -8841 0
8857 -21 8841 0
-8858 8843 0
-8858 -8857 0
8858 -8843 8857 0
-8859 21 0
-8859 -8843 0
8859 -21 8843 0
-8860 8845 0
-8860 -8859 0
8860 -8845 8859 0
-8861 21 0
-8861 -8845 0
8861 -21 8845 0
-8862 8847 0
-8862 -8861 0
8862 -8847 8861 0
-8863 21 0
-8863 -8847 0
8863 -21 8847 0
-8864 8849 0
-8864 -8863 0
8864 -8849 8863 0
-8865 8850 0
-8865 -22 0
8865 -8850 22 0
-8866 22 0
-8866 -8850 0
8866 -22 8850 0
-8867 8852 0
-8867 -8866 0
8867 -8852 8866 0
-8868 22 0
-8868 -8852 0
8868 -22 8852 0
-8869 8854 0
-8869 -8868 0
8869 -8854 8868 0
-8870 22 0
-8870 -8854 0
8870 -22 8854 0
-8871 8856 0
-8871 -8870 0
8871 -8856 8870 0
-8872 22 0
-8872 -8856 0
8872 -22 8856 0
-8873 8858 0
-8873 -8872 0
8873 -8858 8872 0
-8874 22 0
-8874 -8858 0
8874 -22 8858 0
-8875 8860 0
-8875 -8874 0
8875 -8860 8874 0
-8876 22 0
-8876 -8860 0
8876 -22 8860 0
-8877 8862 0
-8877 -8876 0
8877 -8862 8876 0
-8878 22 0
-8878 -8862 0
8878 -22 8862 0
-8879 8864 0
-8879 -8878 0
8879 -8864 8878 0
-8880 8865 0
-8880 -23 0
8880 -8865 23 0
-8881 23 0
-8881 -8865 0
8881 -23 8865 0
-8882 8867 0
-8882 -8881 0
8882 -8867 8881 0
-8883 23 0
-8883 -8867 0
8883 -23 8867 0
-8884 8869 0
-8884 -8883 0
8884 -8869 8883 0
-8885 23 0
-8885 -8869 0
8885 -23 8869 0
-8886 8871 0
-8886 -8885 0
8886 -8871 8885 0
-8887 23 0
-8887 -8871 0
8887 -23 8871 0
-8888 8873 0
-8888 -8887 0
8888 -8873 8887 0
-8889 23 0
-8889 -8873 0
8889 -23 8873 0
-8890 8875 0
-8890 -8889 0
8890 -8875 8889 0
-8891 23 0
-8891 -8875 0
8891 -23 8875 0
-8892 8877 0
-8892 -8891 0
8892 -8877 8891 0
-8893 23 0
-8893 -8877 0
8893 -23 8877 0
-8894 8879 0
-8894 -8893 0
8894 -8879 8893 0
-8895 8880 0
-8895 -24 0
8895 -8880 24 0
-8896 24 0
-8896 -8880 0
8896 -24 8880 0
-8897 8882 0
-8897 -8896 0
8897 -8882 8896 0
-8898 24 0
-8898 -8882 0
8898 -24 8882 0
-8899 8884 0
-8899 -8898 0
8899 -8884 8898 0
-8900 24 0
-8900 -8884 0
8900 -24 8884 0
-8901 8886 0
-8901 -8900 0
8901 -8886 8900 0
-8902 24 0
-8902 -8886 0
8902 -24 8886 0
-8903 8888 0
-8903 -8902 0
8903 -8888 8902 0
-8904 24 0
-8904 -8888 0
8904 -24 8888 0
-8905 8890 0
-8905 -8904 0
8905 -8890 8904 0
-8906 24 0
-8906 -8890 0
8906 -24 8890 0
-8907 8892 0
-8907 -8906 0
8907 -8892 8906 0
-8908 24 0
-8908 -8892 0
8908 -24 8892 0
-8909 8894 0
-8909 -8908 0
8909 -8894 8908 0
-8910 8895 0
-8910 -25 0
8910 -8895 25 0
-8911 25 0
-8911 -8895 0
8911 -25 8895 0
-8912 8897 0
-8912 -8911 0
8912 -8897 8911 0
-8913 25 0
-8913 -8897 0
8913 -25 8897 0
-8914 8899 0
-8914 -8913 0
8914 -8899 8913 0
-8915 25 0
-8915 -8899 0
8915 -25 8899 0
-8916 8901 0
-8916 -8915 0
8916 -8901 8915 0
-8917 25 0
-8917 -8901 0
8917 -25 8901 0
-8918 8903 0
-8918 -8917 0
8918 -8903 8917 0
-8919 25 0
-8919 -8903 0
8919 -25 8903 0
-8920 8905 0
-8920 -8919 0
8920 -8905 8919 0
-8921 25 0
-8921 -8905 0
8921 -25 8905 0
-8922 8907 0
-8922 -8921 0
8922 -8907 8921 0
-8923 25 0
-8923 -8907 0
8923 -25 8907 0
-8924 8909 0
-8924 -8923 0
8924 -8909 8923 0
-8925 8910 0
-8925 -26 0
8925 -8910 26 0
-8926 26 0
-8926 -8910 0
8926 -26 8910 0
-8927 8912 0
-8927 -8926 0
8927 -8912 8926 0
-8928 26 0
-8928 -8912 0
8928 -26 8912 0
-8929 8914 0
-8929 -8928 0
8929 -8914 8928 0
-8930 26 0
-8930 -8914 0
8930 -26 8914 0
-8931 8916 0
-8931 -8930 0
8931 -8916 8930 0
-8932 26 0
-8932 -8916 0
8932 -26 8916 0
-8933 8918 0
-8933 -8932 0
8933 -8918 8932 0
-8934 26 0
-8934 -8918 0
8934 -26 8918 0
-8935 8920 0
-8935 -8934 0
8935 -8920 8934 0
-8936 26 0
-8936 -8920 0
8936 -26 8920 0
-8937 8922 0
-8937 -8936 0
8937 -8922 8936 0
-8938 26 0
-8938 -8922 0
8938 -26 8922 0
-8939 8924 0
-8939 -8938 0
8939 -8924 8938 0
-8940 8925 0
-8940 -27 0
8940 -8925 27 0
-8941 27 0
-8941 -8925 0
8941 -27 8925 0
-8942 8927 0
-8942 -8941 0
8942 -8927 8941 0
-8943 27 0
-8943 -8927 0
8943 -27 8927 0
-8944 8929 0
-8944 -8943 0
8944 -8929 8943 0
-8945 27 0
-8945 -8929 0
8945 -27 8929 0
-8946 8931 0
-8946 -8945 0
8946 -8931 8945 0
-8947 27 0
-8947 -8931 0
8947 -27 8931 0
-8948 8933 0
-8948 -8947 0
8948 -8933 8947 0
-8949 27 0
-8949 -8933 0
8949 -27 8933 0
-8950 8935 0
-8950 -8949 0
8950 -8935 8949 0
-8951 27 0
-8951 -8935 0
8951 -27 8935 0
-8952 8937 0
-8952 -8951 0
8952 -8937 8951 0
-8953 27 0
-8953 -8937 0
8953 -27 8937 0
-8954 8939 0
-8954 -8953 0
8954 -8939 8953 0
-8955 8940 0
-8955 -28 0
8955 -8940 28 0
-8956 28 0
-8956 -8940 0
8956 -28 8940 0
-8957 8942 0
-8957 -8956 0
8957 -8942 8956 0
-8958 28 0
-8958 -8942 0
8958 -28 8942 0
-8959 8944 0
-8959 -8958 0
8959 -8944 8958 0
-8960 28 0
-8960 -8944 0
8960 -28 8944 0
-8961 8946 0
-8961 -8960 0
8961 -8946 8960 0
-8962 28 0
-8962 -8946 0
8962 -28 8946 0
-8963 8948 0
-8963 -8962 0
8963 -8948 8962 0
-8964 28 0
-8964 -8948 0
8964 -28 8948 0
-8965 8950 0
-8965 -8964 0
8965 -8950 8964 0
-8966 28 0
-8966 -8950 0
8966 -28 8950 0
-8967 8952 0
-8967 -8966 0
8967 -8952 8966 0
-8968 28 0
-8968 -8952 0
8968 -28 8952 0
-8969 8954 0
-8969 -8968 0
8969 -8954 8968 0
-8970 8955 0
-8970 -29 0
8970 -8955 29 0
-8971 29 0
-8971 -8955 0
8971 -29 8955 0
-8972 8957 0
-8972 -8971 0
8972 -8957 8971 0
-8973 29 0
-8973 -8957 0
8973 -29 8957 0
-8974 8959 0
-8974 -8973 0
8974 -8959 8973 0
-8975 29 0
-8975 -8959 0
8975 -29 8959 0
-8976 8961 0
-8976 -8975 0
8976 -8961 8975 0
-8977 29 0
-8977 -8961 0
8977 -29 8961 0
-8978 8963 0
-8978 -8977 0
8978 -8963 8977 0
-8979 29 0
-8979 -8963 0
8979 -29 8963 0
-8980 8965 0
-8980 -8979 0
8980 -8965 8979 0
-8981 29 0
-8981 -8965 0
8981 -29 8965 0
-8982 8967 0
-8982 -8981 0
8982 -8967 8981 0
-8983 29 0
-8983 -8967 0
8983 -29 8967 0
-8984 8969 0
-8984 -8983 0
8984 -8969 8983 0
-8985 8970 0
-8985 -30 0
8985 -8970 30 0
-8986 30 0
-8986 -8970 0
8986 -30 8970 0
-8987 8972 0
-8987 -8986 0
8987 -8972 8986 0
-8988 30 0
-8988 -8972 0
8988 -30 8972 0
-8989 8974 0
-8989 -8988 0
8989 -8974 8988 0
-8990 30 0
-8990 -8974 0
8990 -30 8974 0
-8991 8976 0
-8991 -8990 0
8991 -8976 8990 0
-8992 30 0
-8992 -8976 0
8992 -30 8976 0
-8993 8978 0
-8993 -8992 0
8993 -8978 8992 0
-8994 30 0
-8994 -8978 0
8994 -30 8978 0
-8995 8980 0
-8995 -8994 0
8995 -8980 8994 0
-8996 30 0
-8996 -8980 0
8996 -30 8980 0
-8997 8982 0
-8997 -8996 0
8997 -8982 8996 0
-8998 30 0
-8998 -8982 0
8998 -30 8982 0
-8999 8984 0
-8999 -8998 0
8999 -8984 8998 0
-9000 8985 0
-9000 -31 0
9000 -8985 31 0
-9001 31 0
-9001 -8985 0
9001 -31 8985 0
-9002 8987 0
-9002 -9001 0
9002 -8987 9001 0
-9003 31 0
-9003 -8987 0
9003 -31 8987 0
-9004 8989 0
-9004 -9003 0
9004 -8989 9003 0
-9005 31 0
-9005 -8989 0
9005 -31 8989 0
-9006 8991 0
-9006 -9005 0
9006 -8991 9005 0
-9007 31 0
-9007 -8991 0
9007 -31 8991 0
-9008 8993 0
-9008 -9007 0
9008 -8993 9007 0
-9009 31 0
-9009 -8993 0
9009 -31 8993 0
-9010 8995 0
-9010 -9009 0
9010 -8995 9009 0
-9011 31 0
-9011 -8995 0
9011 -31 8995 0
-9012 8997 0
-9012 -9011 0
9012 -8997 9011 0
-9013 31 0
-9013 -8997 0
9013 -31 8997 0
-9014 8999 0
-9014 -9013 0
9014 -8999 9013 0
-9015 9000 0
-9015 -32 0
9015 -9000 32 0
-9016 32 0
-9016 -9000 0
9016 -32 9000 0
-9017 9002 0
-9017 -9016 0
9017 -9002 9016 0
-9018 32 0
-9018 -9002 0
9018 -32 9002 0
-9019 9004 0
-9019 -9018 0
9019 -9004 9018 0
-9020 32 0
-9020 -9004 0
9020 -32 9004 0
-9021 9006 0
-9021 -9020 0
9021 -9006 9020 0
-9022 32 0
-9022 -9006 0
9022 -32 9006 0
-9023 9008 0
-9023 -9022 0
9023 -9008 9022 0
-9024 32 0
-9024 -9008 0
9024 -32 9008 0
-9025 9010 0
-9025 -9024 0
9025 -9010 9024 0
-9026 32 0
-9026 -9010 0
9026 -32 9010 0
-9027 9012 0
-9027 -9026 0
9027 -9012 9026 0
-9028 32 0
-9028 -9012 0
9028 -32 9012 0
-9029 9014 0
-9029 -9028 0
9029 -9014 9028 0
-9030 9015 0
-9030 -33 0
9030 -9015 33 0
-9031 33 0
-9031 -9015 0
9031 -33 9015 0
-9032 9017 0
-9032 -9031 0
9032 -9017 9031 0
-9033 33 0
-9033 -9017 0
9033 -33 9017 0
-9034 9019 0
-9034 -9033 0
9034 -9019 9033 0
-9035 33 0
-9035 -9019 0
9035 -33 9019 0
-9036 9021 0
-9036 -9035 0
9036 -9021 9035 0
-9037 33 0
-9037 -9021 0
9037 -33 9021 0
-9038 9023 0
-9038 -9037 0
9038 -9023 9037 0
-9039 33 0
-9039 -9023 0
9039 -33 9023 0
-9040 9025 0
-9040 -9039 0
9040 -9025 9039 0
-9041 33 0
-9041 -9025 0
9041 -33 9025 0
-9042 9027 0
-9042 -9041 0
9042 -9027 9041 0
-9043 33 0
-9043 -9027 0
9043 -33 9027 0
-9044 9029 0
-9044 -9043 0
9044 -9029 9043 0
-9045 9030 0
-9045 -34 0
9045 -9030 34 0
-9046 34 0
-9046 -9030 0
9046 -34 9030 0
-9047 9032 0
-9047 -9046 0
9047 -9032 9046 0
-9048 34 0
-9048 -9032 0
9048 -34 9032 0
-9049 9034 0
-9049 -9048 0
9049 -9034 9048 0
-9050 34 0
-9050 -9034 0
9050 -34 9034 0
-9051 9036 0
-9051 -9050 0
9051 -9036 9050 0
-9052 34 0
-9052 -9036 0
9052 -34 9036 0
-9053 9038 0
-9053 -9052 0
9053 -9038 9052 0
-9054 34 0
-9054 -9038 0
9054 -34 9038 0
-9055 9040 0
-9055 -9054 0
9055 -9040 9054 0
-9056 34 0
-9056 -9040 0
9056 -34 9040 0
-9057 9042 0
-9057 -9056 0
9057 -9042 9056 0
-9058 34 0
-9058 -9042 0
9058 -34 9042 0
-9059 9044 0
-9059 -9058 0
9059 -9044 9058 0
-9060 9045 0
-9060 -35 0
9060 -9045 35 0
-9061 35 0
-9061 -9045 0
9061 -35 9045 0
-9062 9047 0
-9062 -9061 0
9062 -9047 9061 0
-9063 35 0
-9063 -9047 0
9063 -35 9047 0
-9064 9049 0
-9064 -9063 0
9064 -9049 9063 0
-9065 35 0
-9065 -9049 0
9065 -35 9049 0
-9066 9051 0
-9066 -9065 0
9066 -9051 9065 0
-9067 35 0
-9067 -9051 0
9067 -35 9051 0
-9068 9053 0
-9068 -9067 0
9068 -9053 9067 0
-9069 35 0
-9069 -9053 0
9069 -35 9053 0
-9070 9055 0
-9070 -9069 0
9070 -9055 9069 0
-9071 35 0
-9071 -9055 0
9071 -35 9055 0
-9072 9057 0
-9072 -9071 0
9072 -9057 9071 0
-9073 35 0
-9073 -9057 0
9073 -35 9057 0
-9074 9059 0
-9074 -9073 0
9074 -9059 9073 0
-9075 9060 0
-9075 -36 0
9075 -9060 36 0
-9076 36 0
-9076 -9060 0
9076 -36 9060 0
-9077 9062 0
-9077 -9076 0
9077 -9062 9076 0
-9078 36 0
-9078 -9062 0
9078 -36 9062 0
-9079 9064 0
-9079 -9078 0
9079 -9064 9078 0
-9080 36 0
-9080 -9064 0
9080 -36 9064 0
-9081 9066 0
-9081 -9080 0
9081 -9066 9080 0
-9082 36 0
-9082 -9066 0
9082 -36 9066 0
-9083 9068 0
-9083 -9082 0
9083 -9068 9082 0
-9084 36 0
-9084 -9068 0
9084 -36 9068 0
-9085 9070 0
-9085 -9084 0
9085 -9070 9084 0
-9086 36 0
-9086 -9070 0
9086 -36 9070 0
-9087 9072 0
-9087 -9086 0
9087 -9072 9086 0
-9088 36 0
-9088 -9072 0
9088 -36 9072 0
-9089 9074 0
-9089 -9088 0
9089 -9074 9088 0
-9090 9075 0
-9090 -37 0
9090 -9075 37 0
-9091 37 0
-9091 -9075 0
9091 -37 9075 0
-9092 9077 0
-9092 -9091 0
9092 -9077 9091 0
-9093 37 0
-9093 -9077 0
9093 -37 9077 0
-9094 9079 0
-9094 -9093 0
9094 -9079 9093 0
-9095 37 0
-9095 -9079 0
9095 -37 9079 0
-9096 9081 0
-9096 -9095 0
9096 -9081 9095 0
-9097 37 0
-9097 -9081 0
9097 -37 9081 0
-9098 9083 0
-9098 -9097 0
9098 -9083 9097 0
-9099 37 0
-9099 -9083 0
9099 -37 9083 0
-9100 9085 0
-9100 -9099 0
9100 -9085 9099 0
-9101 37 0
-9101 -9085 0
9101 -37 9085 0
-9102 9087 0
-9102 -9101 0
9102 -9087 9101 0
-9103 37 0
-9103 -9087 0
9103 -37 9087 0
-9104 9089 0
-9104 -9103 0
9104 -9089 9103 0
-9105 9090 0
-9105 -38 0
9105 -9090 38 0
-9106 38 0
-9106 -9090 0
9106 -38 9090 0
-9107 9092 0
-9107 -9106 0
9107 -9092 9106 0
-9108 38 0
-9108 -9092 0
9108 -38 9092 0
-9109 9094 0
-9109 -9108 0
9109 -9094 9108 0
-9110 38 0
-9110 -9094 0
9110 -38 9094 0
-9111 9096 0
-9111 -9110 0
9111 -9096 9110 0
-9112 38 0
-9112 -9096 0
9112 -38 9096 0
-9113 9098 0
-9113 -9112 0
9113 -9098 9112 0
-9114 38 0
-9114 -9098 0
9114 -38 9098 0
-9115 9100 0
-9115 -9114 0
9115 -9100 9114 0
-9116 38 0
-9116 -9100 0
9116 -38 9100 0
-9117 9102 0
-9117 -9116 0
9117 -9102 9116 0
-9118 38 0
-9118 -9102 0
9118 -38 9102 0
-9119 9104 0
-9119 -9118 0
9119 -9104 9118 0
-9120 9105 0
-9120 -39 0
9120 -9105 39 0
-9121 39 0
-9121 -9105 0
9121 -39 9105 0
-9122 9107 0
-9122 -9121 0
9122 -9107 9121 0
-9123 39 0
-9123 -9107 0
9123 -39 9107 0
-9124 9109 0
-9124 -9123 0
9124 -9109 9123 0
-9125 39 0
-9125 -9109 0
9125 -39 9109 0
-9126 9111 0
-9126 -9125 0
9126 -9111 9125 0
-9127 39 0
-9127 -9111 0
9127 -39 9111 0
-9128 9113 0
-9128 -9127 0
9128 -9113 9127 0
-9129 39 0
-9129 -9113 0
9129 -39 9113 0
-9130 9115 0
-9130 -9129 0
9130 -9115 9129 0
-9131 39 0
-9131 -9115 0
9131 -39 9115 0
-9132 9117 0
-9132 -9131 0
9132 -9117 9131 0
-9133 39 0
-9133 -9117 0
9133 -39 9117 0
-9134 9119 0
-9134 -9133 0
9134 -9119 9133 0
-9135 9120 0
-9135 -40 0
9135 -9120 40 0
-9136 40 0
-9136 -9120 0
9136 -40 9120 0
-9137 9122 0
-9137 -9136 0
9137 -9122 9136 0
-9138 40 0
-9138 -9122 0
9138 -40 9122 0
-9139 9124 0
-9139 -9138 0
9139 -9124 9138 0
-9140 40 0
-9140 -9124 0
9140 -40 9124 0
-9141 9126 0
-9141 -9140 0
9141 -9126 9140 0
-9142 40 0
-9142 -9126 0
9142 -40 9126 0
-9143 9128 0
-9143 -9142 0
9143 -9128 9142 0
-9144 40 0
-9144 -9128 0
9144 -40 9128 0
-9145 9130 0
-9145 -9144 0
9145 -9130 9144 0
-9146 40 0
-9146 -9130 0
9146 -40 9130 0
-9147 9132 0
-9147 -9146 0
9147 -9132 9146 0
-9148 40 0
-9148 -9132 0
9148 -40 9132 0
-9149 9134 0
-9149 -9148 0
9149 -9134 9148 0
-9150 9135 0
-9150 -41 0
9150 -9135 41 0
-9151 41 0
-9151 -9135 0
9151 -41 9135 0
-9152 9137 0
-9152 -9151 0
9152 -9137 9151 0
-9153 41 0
-9153 -9137 0
9153 -41 9137 0
-9154 9139 0
-9154 -9153 0
9154 -9139 9153 0
-9155 41 0
-9155 -9139 0
9155 -41 9139 0
-9156 9141 0
-9156 -9155 0
9156 -9141 9155 0
-9157 41 0
-9157 -9141 0
9157 -41 9141 0
-9158 9143 0
-9158 -9157 0
9158 -9143 9157 0
-9159 41 0
-9159 -9143 0
9159 -41 9143 0
-9160 9145 0
-9160 -9159 0
9160 -9145 9159 0
-9161 41 0
-9161 -9145 0
9161 -41 9145 0
-9162 9147 0
-9162 -9161 0
9162 -9147 9161 0
-9163 41 0
-9163 -9147 0
9163 -41 9147 0
-9164 9149 0
-9164 -9163 0
9164 -9149 9163 0
-9165 9150 0
-9165 -42 0
9165 -9150 42 0
-9166 42 0
-9166 -9150 0
9166 -42 9150 0
-9167 9152 0
-9167 -9166 0
9167 -9152 9166 0
-9168 42 0
-9168 -9152 0
9168 -42 9152 0
-9169 9154 0
-9169 -9168 0
9169 -9154 9168 0
-9170 42 0
-9170 -9154 0
9170 -42 9154 0
-9171 9156 0
-9171 -9170 0
9171 -9156 9170 0
-9172 42 0
-9172 -9156 0
9172 -42 9156 0
-9173 9158 0
-9173 -9172 0
9173 -9158 9172 0
-9174 42 0
-9174 -9158 0
9174 -42 9158 0
-9175 9160 0
-9175 -9174 0
9175 -9160 9174 0
-9176 42 0
-9176 -9160 0
9176 -42 9160 0
-9177 9162 0
-9177 -9176 0
9177 -9162 9176 0
-9178 42 0
-9178 -9162 0
9178 -42 9162 0
-9179 9164 0
-9179 -9178 0
9179 -9164 9178 0
-9180 9165 0
-9180 -43 0
9180 -9165 43 0
-9181 43 0
-9181 -9165 0
9181 -43 9165 0
-9182 9167 0
-9182 -9181 0
9182 -9167 9181 0
-9183 43 0
-9183 -9167 0
9183 -43 9167 0
-9184 9169 0
-9184 -9183 0
9184 -9169 9183 0
-9185 43 0
-9185 -9169 0
9185 -43 9169 0
-9186 9171 0
-9186 -9185 0
9186 -9171 9185 0
-9187 43 0
-9187 -9171 0
9187 -43 9171 0
-9188 9173 0
-9188 -9187 0
9188 -9173 9187 0
-9189 43 0
-9189 -9173 0
9189 -43 9173 0
-9190 9175 0
-9190 -9189 0
9190 -9175 9189 0
-9191 43 0
-9191 -9175 0
9191 -43 9175 0
-9192 9177 0
-9192 -9191 0
9192 -9177 9191 0
-9193 43 0
-9193 -9177 0
9193 -43 9177 0
-9194 9179 0
-9194 -9193 0
9194 -9179 9193 0
-9195 9180 0
-9195 -44 0
9195 -9180 44 0
-9196 44 0
-9196 -9180 0
9196 -44 9180 0
-9197 9182 0
-9197 -9196 0
9197 -9182 9196 0
-9198 44 0
-9198 -9182 0
9198 -44 9182 0
-9199 9184 0
-9199 -9198 0
9199 -9184 9198 0
-9200 44 0
-9200 -9184 0
9200 -44 9184 0
-9201 9186 0
-9201 -9200 0
9201 -9186 9200 0
-9202 44 0
-9202 -9186 0
9202 -44 9186 0
-9203 9188 0
-9203 -9202 0
9203 -9188 9202 0
-9204 44 0
-9204 -9188 0
9204 -44 9188 0
-9205 9190 0
-9205 -9204 0
9205 -9190 9204 0
-9206 44 0
-9206 -9190 0
9206 -44 9190 0
-9207 9192 0
-9207 -9206 0
9207 -9192 9206 0
-9208 44 0
-9208 -9192 0
9208 -44 9192 0
-9209 9194 0
-9209 -9208 0
9209 -9194 9208 0
-9210 9195 0
-9210 -45 0
9210 -9195 45 0
-9211 45 0
-9211 -9195 0
9211 -45 9195 0
-9212 9197 0
-9212 -9211 0
9212 -9197 9211 0
-9213 45 0
-9213 -9197 0
9213 -45 9197 0
-9214 9199 0
-9214 -9213 0
9214 -9199 9213 0
-9215 45 0
-9215 -9199 0
9215 -45 9199 0
-9216 9201 0
-9216 -9215 0
9216 -9201 9215 0
-9217 45 0
-9217 -9201 0
9217 -45 9201 0
-9218 9203 0
-9218 -9217 0
9218 -9203 9217 0
-9219 45 0
-9219 -9203 0
9219 -45 9203 0
-9220 9205 0
-9220 -9219 0
9220 -9205 9219 0
-9221 45 0
-9221 -9205 0
9221 -45 9205 0
-9222 9207 0
-9222 -9221 0
9222 -9207 9221 0
-9223 45 0
-9223 -9207 0
9223 -45 9207 0
-9224 9209 0
-9224 -9223 0
9224 -9209 9223 0
-9225 9210 0
-9225 -46 0
9225 -9210 46 0
-9226 46 0
-9226 -9210 0
9226 -46 9210 0
-9227 9212 0
-9227 -9226 0
9227 -9212 9226 0
-9228 46 0
-9228 -9212 0
9228 -46 9212 0
-9229 9214 0
-9229 -9228 0
9229 -9214 9228 0
-9230 46 0
-9230 -9214 0
9230 -46 9214 0
-9231 9216 0
-9231 -9230 0
9231 -9216 9230 0
-9232 46 0
-9232 -9216 0
9232 -46 9216 0
-9233 9218 0
-9233 -9232 0
9233 -9218 9232 0
-9234 46 0
-9234 -9218 0
9234 -46 9218 0
-9235 9220 0
-9235 -9234 0
9235 -9220 9234 0
-9236 46 0
-9236 -9220 0
9236 -46 9220 0
-9237 9222 0
-9237 -9236 0
9237 -9222 9236 0
-9238 46 0
-9238 -9222 0
9238 -46 9222 0
-9239 9224 0
-9239 -9238 0
9239 -9224 9238 0
-9240 9225 0
-9240 -47 0
9240 -9225 47 0
-9241 47 0
-9241 -9225 0
9241 -47 9225 0
-9242 9227 0
-9242 -9241 0
9242 -9227 9241 0
-9243 47 0
-9243 -9227 0
9243 -47 9227 0
-9244 9229 0
-9244 -9243 0
9244 -9229 9243 0
-9245 47 0
-9245 -9229 0
9245 -47 9229 0
-9246 9231 0
-9246 -9245 0
9246 -9231 9245 0
-9247 47 0
-9247 -9231 0
9247 -47 9231 0
-9248 9233 0
-9248 -9247 0
9248 -9233 9247 0
-9249 47 0
-9249 -9233 0
9249 -47 9233 0
-9250 9235 0
-9250 -9249 0
9250 -9235 9249 0
-9251 47 0
-9251 -9235 0
9251 -47 9235 0
-9252 9237 0
-9252 -9251 0
9252 -9237 9251 0
-9253 47 0
-9253 -9237 0
9253 -47 9237 0
-9254 9239 0
-9254 -9253 0
9254 -9239 9253 0
-9255 9240 0
-9255 -48 0
9255 -9240 48 0
-9256 48 0
-9256 -9240 0
9256 -48 9240 0
-9257 9242 0
-9257 -9256 0
9257 -9242 9256 0
-9258 48 0
-9258 -9242 0
9258 -48 9242 0
-9259 9244 0
-9259 -9258 0
9259 -9244 9258 0
-9260 48 0
-9260 -9244 0
9260 -48 9244 0
-9261 9246 0
-9261 -9260 0
9261 -9246 9260 0
-9262 48 0
-9262 -9246 0
9262 -48 9246 0
-9263 9248 0
-9263 -9262 0
9263 -9248 9262 0
-9264 48 0
-9264 -9248 0
9264 -48 9248 0
-9265 9250 0
-9265 -9264 0
9265 -9250 9264 0
-9266 48 0
-9266 -9250 0
9266 -48 9250 0
-9267 9252 0
-9267 -9266 0
9267 -9252 9266 0
-9268 48 0
-9268 -9252 0
9268 -48 9252 0
-9269 9254 0
-9269 -9268 0
9269 -9254 9268 0
-9270 9255 0
-9270 -49 0
9270 -9255 49 0
-9271 49 0
-9271 -9255 0
9271 -49 9255 0
-9272 9257 0
-9272 -9271 0
9272 -9257 9271 0
-9273 49 0
-9273 -9257 0
9273 -49 9257 0
-9274 9259 0
-9274 -9273 0
9274 -9259 9273 0
-9275 49 0
-9275 -9259 0
9275 -49 9259 0
-9276 9261 0
-9276 -9275 0
9276 -9261 9275 0
-9277 49 0
-9277 -9261 0
9277 -49 9261 0
-9278 9263 0
-9278 -9277 0
9278 -9263 9277 0
-9279 49 0
-9279 -9263 0
9279 -49 9263 0
-9280 9265 0
-9280 -9279 0
9280 -9265 9279 0
-9281 49 0
-9281 -9265 0
9281 -49 9265 0
-9282 9267 0
-9282 -9281 0
9282 -9267 9281 0
-9283 49 0
-9283 -9267 0
9283 -49 9267 0
-9284 9269 0
-9284 -9283 0
9284 -9269 9283 0
-9285 9270 0
-9285 -50 0
9285 -9270 50 0
-9286 50 0
-9286 -9270 0
9286 -50 9270 0
-9287 9272 0
-9287 -9286 0
9287 -9272 9286 0
-9288 50 0
-9288 -9272 0
9288 -50 9272 0
-9289 9274 0
-9289 -9288 0
9289 -9274 9288 0
-9290 50 0
-9290 -9274 0
9290 -50 9274 0
-9291 9276 0
-9291 -9290 0
9291 -9276 9290 0
-9292 50 0
-9292 -9276 0
9292 -50 9276 0
-9293 9278 0
-9293 -9292 0
9293 -9278 9292 0
-9294 50 0
-9294 -9278 0
9294 -50 9278 0
-9295 9280 0
-9295 -9294 0
9295 -9280 9294 0
-9296 50 0
-9296 -9280 0
9296 -50 9280 0
-9297 9282 0
-9297 -9296 0
9297 -9282 9296 0
-9298 50 0
-9298 -9282 0
9298 -50 9282 0
-9299 9284 0
-9299 -9298 0
9299 -9284 9298 0
-9300 9285 0
-9300 -51 0
9300 -9285 51 0
-9301 51 0
-9301 -9285 0
9301 -51 9285 0
-9302 9287 0
-9302 -9301 0
9302 -9287 9301 0
-9303 51 0
-9303 -9287 0
9303 -51 9287 0
-9304 9289 0
-9304 -9303 0
9304 -9289 9303 0
-9305 51 0
-9305 -9289 0
9305 -51 9289 0
-9306 9291 0
-9306 -9305 0
9306 -9291 9305 0
-9307 51 0
-9307 -9291 0
9307 -51 9291 0
-9308 9293 0
-9308 -9307 0
9308 -9293 9307 0
-9309 51 0
-9309 -9293 0
9309 -51 9293 0
-9310 9295 0
-9310 -9309 0
9310 -9295 9309 0
-9311 51 0
-9311 -9295 0
9311 -51 9295 0
-9312 9297 0
-9312 -9311 0
9312 -9297 9311 0
-9313 51 0
-9313 -9297 0
9313 -51 9297 0
-9314 9299 0
-9314 -9313 0
9314 -9299 9313 0
-9315 9300 0
-9315 -52 0
9315 -9300 52 0
-9316 52 0
-9316 -9300 0
9316 -52 9300 0
-9317 9302 0
-9317 -9316 0
9317 -9302 9316 0
-9318 52 0
-9318 -9302 0
9318 -52 9302 0
-9319 9304 0
-9319 -9318 0
9319 -9304 9318 0
-9320 52 0
-9320 -9304 0
9320 -52 9304 0
-9321 9306 0
-9321 -9320 0
9321 -9306 9320 0
-9322 52 0
-9322 -9306 0
9322 -52 9306 0
-9323 9308 0
-9323 -9322 0
9323 -9308 9322 0
-9324 52 0
-9324 -9308 0
9324 -52 9308 0
-9325 9310 0
-9325 -9324 0
9325 -9310 9324 0
-9326 52 0
-9326 -9310 0
9326 -52 9310 0
-9327 9312 0
-9327 -9326 0
9327 -9312 9326 0
-9328 52 0
-9328 -9312 0
9328 -52 9312 0
-9329 9314 0
-9329 -9328 0
9329 -9314 9328 0
-9330 9315 0
-9330 -53 0
9330 -9315 53 0
-9331 53 0
-9331 -9315 0
9331 -53 9315 0
-9332 9317 0
-9332 -9331 0
9332 -9317 9331 0
-9333 53 0
-9333 -9317 0
9333 -53 9317 0
-9334 9319 0
-9334 -9333 0
9334 -9319 9333 0
-9335 53 0
-9335 -9319 0
9335 -53 9319 0
-9336 9321 0
-9336 -9335 0
9336 -9321 9335 0
-9337 53 0
-9337 -9321 0
9337 -53 9321 0
-9338 9323 0
-9338 -9337 0
9338 -9323 9337 0
-9339 53 0
-9339 -9323 0
9339 -53 9323 0
-9340 9325 0
-9340 -9339 0
9340 -9325 9339 0
-9341 53 0
-9341 -9325 0
9341 -53 9325 0
-9342 9327 0
-9342 -9341 0
9342 -9327 9341 0
-9343 53 0
-9343 -9327 0
9343 -53 9327 0
-9344 9329 0
-9344 -9343 0
9344 -9329 9343 0
-9344 0
-9345 -12 0
-9345 -13 0
9345 12 13 0
-9346 9345 0
-9346 -14 0
9346 -9345 14 0
-9347 14 0
-9347 -9345 0
9347 -14 9345 0
-9348 -105 0
-9348 -9347 0
9348 105 9347 0
-9349 14 0
-9349 105 0
9349 -14 -105 0
-9350 9346 0
-9350 -15 0
9350 -9346 15 0
-9351 15 0
-9351 -9346 0
9351 -15 9346 0
-9352 9348 0
-9352 -9351 0
9352 -9348 9351 0
-9353 15 0
-9353 -9348 0
9353 -15 9348 0
-9354 -9349 0
-9354 -9353 0
9354 9349 9353 0
-9355 15 0
-9355 9349 0
9355 -15 -9349 0
-9356 9350 0
-9356 -16 0
9356 -9350 16 0
-9357 16 0
-9357 -9350 0
9357 -16 9350 0
-9358 9352 0
-9358 -9357 0
9358 -9352 9357 0
-9359 16 0
-9359 -9352 0
9359 -16 9352 0
-9360 9354 0
-9360 -9359 0
9360 -9354 9359 0
-9361 16 0
-9361 -9354 0
9361 -16 9354 0
-9362 -9355 0
-9362 -9361 0
9362 9355 9361 0
-9363 16 0
-9363 9355 0
9363 -16 -9355 0
-9364 9356 0
-9364 -17 0
9364 -9356 17 0
-9365 17 0
-9365 -9356 0
9365 -17 9356 0
-9366 9358 0
-9366 -9365 0
9366 -9358 9365 0
-9367 17 0
-9367 -9358 0
9367 -17 9358 0
-9368 9360 0
-9368 -9367 0
9368 -9360 9367 0
-9369 17 0
-9369 -9360 0
9369 -17 9360 0
-9370 9362 0
-9370 -9369 0
9370 -9362 9369 0
-9371 17 0
-9371 -9362 0
9371 -17 9362 0
-9372 -9363 0
-9372 -9371 0
9372 9363 9371 0
-9373 17 0
-9373 9363 0
9373 -17 -9363 0
-9374 9364 0
-9374 -18 0
9374 -9364 18 0
-9375 18 0
-9375 -9364 0
9375 -18 9364 0
-9376 9366 0
-9376 -9375 0
9376 -9366 9375 0
-9377 18 0
-9377 -9366 0
9377 -18 9366 0
-9378 9368 0
-9378 -9377 0
9378 -9368 9377 0
-9379 18 0
-9379 -9368 0
9379 -18 9368 0
-9380 9370 0
-9380 -9379 0
9380 -9370 9379 0
-9381 18 0
-9381 -9370 0
9381 -18 9370 0
-9382 9372 0
-9382 -9381 0
9382 -9372 9381 0
-9383 18 0
-9383 -9372 0
9383 -18 9372 0
-9384 -9373 0
-9384 -9383 0
9384 9373 9383 0
-9385 18 0
-9385 9373 0
9385 -18 -9373 0
-9386 9374 0
-9386 -19 0
9386 -9374 19 0
-9387 19 0
-9387 -9374 0
9387 -19 9374 0
-9388 9376 0
-9388 -9387 0
9388 -9376 9387 0
-9389 19 0
-9389 -9376 0
9389 -19 9376 0
-9390 9378 0
-9390 -9389 0
9390 -9378 9389 0
-9391 19 0
-9391 -9378 0
9391 -19 9378 0
-9392 9380 0
-9392 -9391 0
9392 -9380 9391 0
-9393 19 0
-9393 -9380 0
9393 -19 9380 0
-9394 9382 0
-9394 -9393 0
9394 -9382 9393 0
-9395 19 0
-9395 -9382 0
9395 -19 9382 0
-9396 9384 0
-9396 -9395 0
9396 -9384 9395 0
-9397 19 0
-9397 -9384 0
9397 -19 9384 0
-9398 -9385 0
-9398 -9397 0
9398 9385 9397 0
-9399 19 0
-9399 9385 0
9399 -19 -9385 0
-9400 9386 0
-9400 -20 0
9400 -9386 20 0
-9401 20 0
-9401 -9386 0
9401 -20 9386 0
-9402 9388 0
-9402 -9401 0
9402 -9388 9401 0
-9403 20 0
-9403 -9388 0
9403 -20 9388 0
-9404 9390 0
-9404 -9403 0
9404 -9390 9403 0
-9405 20 0
-9405 -9390 0
9405 -20 9390 0
-9406 9392 0
-9406 -9405 0
9406 -9392 9405 0
-9407 20 0
-9407 -9392 0
9407 -20 9392 0
-9408 9394 0
-9408 -9407 0
9408 -9394 9407 0
-9409 20 0
-9409 -9394 0
9409 -20 9394 0
-9410 9396 0
-9410 -9409 0
9410 -9396 9409 0
-9411 20 0
-9411 -9396 0
9411 -20 9396 0
-9412 9398 0
-9412 -9411 0
9412 -9398 9411 0
-9413 20 0
-9413 -9398 0
9413 -20 9398 0
-9414 -9399 0
-9414 -9413 0
9414 9399 9413 0
-9415 9400 0
-9415 -21 0
9415 -9400 21 0
-9416 21 0
-9416 -9400 0
9416 -21 9400 0
-9417 9402 0
-9417 -9416 0
9417 -9402 9416 0
-9418 21 0
-9418 -9402 0
9418 -21 9402 0
-9419 9404 0
-9419 -9418 0
9419 -9404 9418 0
-9420 21 0
-9420 -9404 0
9420 -21 9404 0
-9421 9406 0
-9421 -9420 0
9421 -9406 9420 0
-9422 21 0
-9422 -9406 0
9422 -21 9406 0
-9423 9408 0
-9423 -9422 0
9423 -9408 9422 0
-9424 21 0
-9424 -9408 0
9424 -21 9408 0
-9425 9410 0
-9425 -9424 0
9425 -9410 9424 0
-9426 21 0
-9426 -9410 0
9426 -21 9410 0
-9427 9412 0
-9427 -9426 0
9427 -9412 9426 0
-9428 21 0
-9428 -9412 0
9428 -21 9412 0
-9429 9414 0
-9429 -9428 0
9429 -9414 9428 0
-9430 9415 0
-9430 -22 0
9430 -9415 22 0
-9431 22 0
-9431 -9415 0
9431 -22 9415 0
-9432 9417 0
-9432 -9431 0
9432 -9417 9431 0
-9433 22 0
-9433 -9417 0
9433 -22 9417 0
-9434 9419 0
-9434 -9433 0
9434 -9419 9433 0
-9435 22 0
-9435 -9419 0
9435 -22 9419 0
-9436 9421 0
-9436 -9435 0
9436 -9421 9435 0
-9437 22 0
-9437 -9421 0
9437 -22 9421 0
-9438 9423 0
-9438 -9437 0
9438 -9423 9437 0
-9439 22 0
-9439 -9423 0
9439 -22 9423 0
-9440 9425 0
-9440 -9439 0
9440 -9425 9439 0
-9441 22 0
-9441 -9425 0
9441 -22 9425 0
-9442 9427 0
-9442 -9441 0
9442 -9427 9441 0
-9443 22 0
-9443 -9427 0
9443 -22 9427 0
-9444 9429 0
-9444 -9443 0
9444 -9429 9443 0
-9445 9430 0
-9445 -23 0
9445 -9430 23 0
-9446 23 0
-9446 -9430 0
9446 -23 9430 0
-9447 9432 0
-9447 -9446 0
9447 -9432 9446 0
-9448 23 0
-9448 -9432 0
9448 -23 9432 0
-9449 9434 0
-9449 -9448 0
9449 -9434 9448 0
-9450 23 0
-9450 -9434 0
9450 -23 9434 0
-9451 9436 0
-9451 -9450 0
9451 -9436 9450 0
-9452 23 0
-9452 -9436 0
9452 -23 9436 0
-9453 9438 0
-9453 -9452 0
9453 -9438 9452 0
-9454 23 0
-9454 -9438 0
9454 -23 9438 0
-9455 9440 0
-9455 -9454 0
9455 -9440 9454 0
-9456 23 0
-9456 -9440 0
9456 -23 9440 0
-9457 9442 0
-9457 -9456 0
9457 -9442 9456 0
-9458 23 0
-9458 -9442 0
9458 -23 9442 0
-9459 9444 0
-9459 -9458 0
9459 -9444 9458 0
-9460 9445 0
-9460 -24 0
9460 -9445 24 0
-9461 24 0
-9461 -9445 0
9461 -24 9445 0
-9462 9447 0
-9462 -9461 0
9462 -9447 9461 0
-9463 24 0
-9463 -9447 0
9463 -24 9447 0
-9464 9449 0
-9464 -9463 0
9464 -9449 9463 0
-9465 24 0
-9465 -9449 0
9465 -24 9449 0
-9466 9451 0
-9466 -9465 0
9466 -9451 9465 0
-9467 24 0
-9467 -9451 0
9467 -24 9451 0
-9468 9453 0
-9468 -9467 0
9468 -9453 9467 0
-9469 24 0
-9469 -9453 0
9469 -24 9453 0
-9470 9455 0
-9470 -9469 0
9470 -9455 9469 0
-9471 24 0
-9471 -9455 0
9471 -24 9455 0
-9472 9457 0
-9472 -9471 0
9472 -9457 9471 0
-9473 24 0
-9473 -9457 0
9473 -24 9457 0
-9474 9459 0
-9474 -9473 0
9474 -9459 9473 0
-9475 9460 0
-9475 -25 0
9475 -9460 25 0
-9476 25 0
-9476 -9460 0
9476 -25 9460 0
-9477 9462 0
-9477 -9476 0
9477 -9462 9476 0
-9478 25 0
-9478 -9462 0
9478 -25 9462 0
-9479 9464 0
-9479 -9478 0
9479 -9464 9478 0
-9480 25 0
-9480 -9464 0
9480 -25 9464 0
-9481 9466 0
-9481 -9480 0
9481 -9466 9480 0
-9482 25 0
-9482 -9466 0
9482 -25 9466 0
-9483 9468 0
-9483 -9482 0
9483 -9468 9482 0
-9484 25 0
-9484 -9468 0
9484 -25 9468 0
-9485 9470 0
-9485 -9484 0
9485 -9470 9484 0
-9486 25 0
-9486 -9470 0
9486 -25 9470 0
-9487 9472 0
-9487 -9486 0
9487 -9472 9486 0
-9488 25 0
-9488 -9472 0
9488 -25 9472 0
-9489 9474 0
-9489 -9488 0
9489 -9474 9488 0
-9490 9475 0
-9490 -26 0
9490 -9475 26 0
-9491 26 0
-9491 -9475 0
9491 -26 9475 0
-9492 9477 0
-9492 -9491 0
9492 -9477 9491 0
-9493 26 0
-9493 -9477 0
9493 -26 9477 0
-9494 9479 0
-9494 -9493 0
9494 -9479 9493 0
-9495 26 0
-9495 -9479 0
9495 -26 9479 0
-9496 9481 0
-9496 -9495 0
9496 -9481 9495 0
-9497 26 0
-9497 -9481 0
9497 -26 9481 0
-9498 9483 0
-9498 -9497 0
9498 -9483 9497 0
-9499 26 0
-9499 -9483 0
9499 -26 9483 0
-9500 9485 0
-9500 -9499 0
9500 -9485 9499 0
-9501 26 0
-9501 -9485 0
9501 -26 9485 0
-9502 9487 0
-9502 -9501 0
9502 -9487 9501 0
-9503 26 0
-9503 -9487 0
9503 -26 9487 0
-9504 9489 0
-9504 -9503 0
9504 -9489 9503 0
-9505 9490 0
-9505 -27 0
9505 -9490 27 0
-9506 27 0
-9506 -9490 0
9506 -27 9490 0
-9507 9492 0
-9507 -9506 0
9507 -9492 9506 0
-9508 27 0
-9508 -9492 0
9508 -27 9492 0
-9509 9494 0
-9509 -9508 0
9509 -9494 9508 0
-9510 27 0
-9510 -9494 0
9510 -27 9494 0
-9511 9496 0
-9511 -9510 0
9511 -9496 9510 0
-9512 27 0
-9512 -9496 0
9512 -27 9496 0
-9513 9498 0
-9513 -9512 0
9513 -9498 9512 0
-9514 27 0
-9514 -9498 0
9514 -27 9498 0
-9515 9500 0
-9515 -9514 0
9515 -9500 9514 0
-9516 27 0
-9516 -9500 0
9516 -27 9500 0
-9517 9502 0
-9517 -9516 0
9517 -9502 9516 0
-9518 27 0
-9518 -9502 0
9518 -27 9502 0
-9519 9504 0
-9519 -9518 0
9519 -9504 9518 0
-9520 9505 0
-9520 -28 0
9520 -9505 28 0
-9521 28 0
-9521 -9505 0
9521 -28 9505 0
-9522 9507 0
-9522 -9521 0
9522 -9507 9521 0
-9523 28 0
-9523 -9507 0
9523 -28 9507 0
-9524 9509 0
-9524 -9523 0
9524 -9509 9523 0
-9525 28 0
-9525 -9509 0
9525 -28 9509 0
-9526 9511 0
-9526 -9525 0
9526 -9511 9525 0
-9527 28 0
-9527 -9511 0
9527 -28 9511 0
-9528 9513 0
-9528 -9527 0
9528 -9513 9527 0
-9529 28 0
-9529 -9513 0
9529 -28 9513 0
-9530 9515 0
-9530 -9529 0
9530 -9515 9529 0
-9531 28 0
-9531 -9515 0
9531 -28 9515 0
-9532 9517 0
-9532 -9531 0
9532 -9517 9531 0
-9533 28 0
-9533 -9517 0
9533 -28 9517 0
-9534 9519 0
-9534 -9533 0
9534 -9519 9533 0
-9535 9520 0
-9535 -29 0
9535 -9520 29 0
-9536 29 0
-9536 -9520 0
9536 -29 9520 0
-9537 9522 0
-9537 -9536 0
9537 -9522 9536 0
-9538 29 0
-9538 -9522 0
9538 -29 9522 0
-9539 9524 0
-9539 -9538 0
9539 -9524 9538 0
-9540 29 0
-9540 -9524 0
9540 -29 9524 0
-9541 9526 0
-9541 -9540 0
9541 -9526 9540 0
-9542 29 0
-9542 -9526 0
9542 -29 9526 0
-9543 9528 0
-9543 -9542 0
9543 -9528 9542 0
-9544 29 0
-9544 -9528 0
9544 -29 9528 0
-9545 9530 0
-9545 -9544 0
9545 -9530 9544 0
-9546 29 0
-9546 -9530 0
9546 -29 9530 0
-9547 9532 0
-9547 -9546 0
9547 -9532 9546 0
-9548 29 0
-9548 -9532 0
9548 -29 9532 0
-9549 9534 0
-9549 -9548 0
9549 -9534 9548 0
-9550 9535 0
-9550 -30 0
9550 -9535 30 0
-9551 30 0
-9551 -9535 0
9551 -30 9535 0
-9552 9537 0
-9552 -9551 0
9552 -9537 9551 0
-9553 30 0
-9553 -9537 0
9553 -30 9537 0
-9554 9539 0
-9554 -9553 0
9554 -9539 9553 0
-9555 30 0
-9555 -9539 0
9555 -30 9539 0
-9556 9541 0
-9556 -9555 0
9556 -9541 9555 0
-9557 30 0
-9557 -9541 0
9557 -30 9541 0
-9558 9543 0
-9558 -9557 0
9558 -9543 9557 0
-9559 30 0
-9559 -9543 0
9559 -30 9543 0
-9560 9545 0
-9560 -9559 0
9560 -9545 9559 0
-9561 30 0
-9561 -9545 0
9561 -30 9545 0
-9562 9547 0
-9562 -9561 0
9562 -9547 9561 0
-9563 30 0
-9563 -9547 0
9563 -30 9547 0
-9564 9549 0
-9564 -9563 0
9564 -9549 9563 0
-9565 9550 0
-9565 -31 0
9565 -9550 31 0
-9566 31 0
-9566 -9550 0
9566 -31 9550 0
-9567 9552 0
-9567 -9566 0
9567 -9552 9566 0
-9568 31 0
-9568 -9552 0
9568 -31 9552 0
-9569 9554 0
-9569 -9568 0
9569 -9554 9568 0
-9570 31 0
-9570 -9554 0
9570 -31 9554 0
-9571 9556 0
-9571 -9570 0
9571 -9556 9570 0
-9572 31 0
-9572 -9556 0
9572 -31 9556 0
-9573 9558 0
-9573 -9572 0
9573 -9558 9572 0
-9574 31 0
-9574 -9558 0
9574 -31 9558 0
-9575 9560 0
-9575 -9574 0
9575 -9560 9574 0
-9576 31 0
-9576 -9560 0
9576 -31 9560 0
-9577 9562 0
-9577 -9576 0
9577 -9562 9576 0
-9578 31 0
-9578 -9562 0
9578 -31 9562 0
-9579 9564 0
-9579 -9578 0
9579 -9564 9578 0
-9580 9565 0
-9580 -32 0
9580 -9565 32 0
-9581 32 0
-9581 -9565 0
9581 -32 9565 0
-9582 9567 0
-9582 -9581 0
9582 -9567 9581 0
-9583 32 0
-9583 -9567 0
9583 -32 9567 0
-9584 9569 0
-9584 -9583 0
9584 -9569 9583 0
-9585 32 0
-9585 -9569 0
9585 -32 9569 0
-9586 9571 0
-9586 -9585 0
9586 -9571 9585 0
-9587 32 0
-9587 -9571 0
9587 -32 9571 0
-9588 9573 0
-9588 -9587 0
9588 -9573 9587 0
-9589 32 0
-9589 -9573 0
9589 -32 9573 0
-9590 9575 0
-9590 -9589 0
9590 -9575 9589 0
-9591 32 0
-9591 -9575 0
9591 -32 9575 0
-9592 9577 0
-9592 -9591 0
9592 -9577 9591 0
-9593 32 0
-9593 -9577 0
9593 -32 9577 0
-9594 9579 0
-9594 -9593 0
9594 -9579 9593 0
-9595 9580 0
-9595 -54 0
9595 -9580 54 0
-9596 54 0
-9596 -9580 0
9596 -54 9580 0
-9597 9582 0
-9597 -9596 0
9597 -9582 9596 0
-9598 54 0
-9598 -9582 0
9598 -54 9582 0
-9599 9584 0
-9599 -9598 0
9599 -9584 9598 0
-9600 54 0
-9600 -9584 0
9600 -54 9584 0
-9601 9586 0
-9601 -9600 0
9601 -9586 9600 0
-9602 54 0
-9602 -9586 0
9602 -54 9586 0
-9603 9588 0
-9603 -9602 0
9603 -9588 9602 0
-9604 54 0
-9604 -9588 0
9604 -54 9588 0
-9605 9590 0
-9605 -9604 0
9605 -9590 9604 0
-9606 54 0
-9606 -9590 0
9606 -54 9590 0
-9607 9592 0
-9607 -9606 0
9607 -9592 9606 0
-9608 54 0
-9608 -9592 0
9608 -54 9592 0
-9609 9594 0
-9609 -9608 0
9609 -9594 9608 0
-9610 9595 0
-9610 -54 0
9610 -9595 54 0
-9611 54 0
-9611 -9595 0
9611 -54 9595 0
-9612 9597 0
-9612 -9611 0
9612 -9597 9611 0
-9613 54 0
-9613 -9597 0
9613 -54 9597 0
-9614 9599 0
-9614 -9613 0
9614 -9599 9613 0
-9615 54 0
-9615 -9599 0
9615 -54 9599 0
-9616 9601 0
-9616 -9615 0
9616 -9601 9615 0
-9617 54 0
-9617 -9601 0
9617 -54 9601 0
-9618 9603 0
-9618 -9617 0
9618 -9603 9617 0
-9619 54 0
-9619 -9603 0
9619 -54 9603 0
-9620 9605 0
-9620 -9619 0
9620 -9605 9619 0
-9621 54 0
-9621 -9605 0
9621 -54 9605 0
-9622 9607 0
-9622 -9621 0
9622 -9607 9621 0
-9623 54 0
-9623 -9607 0
9623 -54 9607 0
-9624 9609 0
-9624 -9623 0
9624 -9609 9623 0
-9625 9610 0
-9625 -55 0
9625 -9610 55 0
-9626 55 0
-9626 -9610 0
9626 -55 9610 0
-9627 9612 0
-9627 -9626 0
9627 -9612 9626 0
-9628 55 0
-9628 -9612 0
9628 -55 9612 0
-9629 9614 0
-9629 -9628 0
9629 -9614 9628 0
-9630 55 0
-9630 -9614 0
9630 -55 9614 0
-9631 9616 0
-9631 -9630 0
9631 -9616 9630 0
-9632 55 0
-9632 -9616 0
9632 -55 9616 0
-9633 9618 0
-9633 -9632 0
9633 -9618 9632 0
-9634 55 0
-9634 -9618 0
9634 -55 9618 0
-9635 9620 0
-9635 -9634 0
9635 -9620 9634 0
-9636 55 0
-9636 -9620 0
9636 -55 9620 0
-9637 9622 0
-9637 -9636 0
9637 -9622 9636 0
-9638 55 0
-9638 -9622 0
9638 -55 9622 0
-9639 9624 0
-9639 -9638 0
9639 -9624 9638 0
-9640 9625 0
-9640 -55 0
9640 -9625 55 0
-9641 55 0
-9641 -9625 0
9641 -55 9625 0
-9642 9627 0
-9642 -9641 0
9642 -9627 9641 0
-9643 55 0
-9643 -9627 0
9643 -55 9627 0
-9644 9629 0
-9644 -9643 0
9644 -9629 9643 0
-9645 55 0
-9645 -9629 0
9645 -55 9629 0
-9646 9631 0
-9646 -9645 0
9646 -9631 9645 0
-9647 55 0
-9647 -9631 0
9647 -55 9631 0
-9648 9633 0
-9648 -9647 0
9648 -9633 9647 0
-9649 55 0
-9649 -9633 0
9649 -55 9633 0
-9650 9635 0
-9650 -9649 0
9650 -9635 9649 0
-9651 55 0
-9651 -9635 0
9651 -55 9635 0
-9652 9637 0
-9652 -9651 0
9652 -9637 9651 0
-9653 55 0
-9653 -9637 0
9653 -55 9637 0
-9654 9639 0
-9654 -9653 0
9654 -9639 9653 0
-9655 9640 0
-9655 -56 0
9655 -9640 56 0
-9656 56 0
-9656 -9640 0
9656 -56 9640 0
-9657 9642 0
-9657 -9656 0
9657 -9642 9656 0
-9658 56 0
-9658 -9642 0
9658 -56 9642 0
-9659 9644 0
-9659 -9658 0
9659 -9644 9658 0
-9660 56 0
-9660 -9644 0
9660 -56 9644 0
-9661 9646 0
-9661 -9660 0
9661 -9646 9660 0
-9662 56 0
-9662 -9646 0
9662 -56 9646 0
-9663 9648 0
-9663 -9662 0
9663 -9648 9662 0
-9664 56 0
-9664 -9648 0
9664 -56 9648 0
-9665 9650 0
-9665 -9664 0
9665 -9650 9664 0
-9666 56 0
-9666 -9650 0
9666 -56 9650 0
-9667 9652 0
-9667 -9666 0
9667 -9652 9666 0
-9668 56 0
-9668 -9652 0
9668 -56 9652 0
-9669 9654 0
-9669 -9668 0
9669 -9654 9668 0
-9670 9655 0
-9670 -56 0
9670 -9655 56 0
-9671 56 0
-9671 -9655 0
9671 -56 9655 0
-9672 9657 0
-9672 -9671 0
9672 -9657 9671 0
-9673 56 0
-9673 -9657 0
9673 -56 9657 0
-9674 9659 0
-9674 -9673 0
9674 -9659 9673 0
-9675 56 0
-9675 -9659 0
9675 -56 9659 0
-9676 9661 0
-9676 -9675 0
9676 -9661 9675 0
-9677 56 0
-9677 -9661 0
9677 -56 9661 0
-9678 9663 0
-9678 -9677 0
9678 -9663 9677 0
-9679 56 0
-9679 -9663 0
9679 -56 9663 0
-9680 9665 0
-9680 -9679 0
9680 -9665 9679 0
-9681 56 0
-9681 -9665 0
9681 -56 9665 0
-9682 9667 0
-9682 -9681 0
9682 -9667 9681 0
-9683 56 0
-9683 -9667 0
9683 -56 9667 0
-9684 9669 0
-9684 -9683 0
9684 -9669 9683 0
-9685 9670 0
-9685 -57 0
9685 -9670 57 0
-9686 57 0
-9686 -9670 0
9686 -57 9670 0
-9687 9672 0
-9687 -9686 0
9687 -9672 9686 0
-9688 57 0
-9688 -9672 0
9688 -57 9672 0
-9689 9674 0
-9689 -9688 0
9689 -9674 9688 0
-9690 57 0
-9690 -9674 0
9690 -57 9674 0
-9691 9676 0
-9691 -9690 0
9691 -9676 9690 0
-9692 57 0
-9692 -9676 0
9692 -57 9676 0
-9693 9678 0
-9693 -9692 0
9693 -9678 9692 0
-9694 57 0
-9694 -9678 0
9694 -57 9678 0
-9695 9680 0
-9695 -9694 0
9695 -9680 9694 0
-9696 57 0
-9696 -9680 0
9696 -57 9680 0
-9697 9682 0
-9697 -9696 0
9697 -9682 9696 0
-9698 57 0
-9698 -9682 0
9698 -57 9682 0
-9699 9684 0
-9699 -9698 0
9699 -9684 9698 0
-9700 9685 0
-9700 -57 0
9700 -9685 57 0
-9701 57 0
-9701 -9685 0
9701 -57 9685 0
-9702 9687 0
-9702 -9701 0
9702 -9687 9701 0
-9703 57 0
-9703 -9687 0
9703 -57 9687 0
-9704 9689 0
-9704 -9703 0
9704 -9689 9703 0
-9705 57 0
-9705 -9689 0
9705 -57 9689 0
-9706 9691 0
-9706 -9705 0
9706 -9691 9705 0
-9707 57 0
-9707 -9691 0
9707 -57 9691 0
-9708 9693 0
-9708 -9707 0
9708 -9693 9707 0
-9709 57 0
-9709 -9693 0
9709 -57 9693 0
-9710 9695 0
-9710 -9709 0
9710 -9695 9709 0
-9711 57 0
-9711 -9695 0
9711 -57 9695 0
-9712 9697 0
-9712 -9711 0
9712 -9697 9711 0
-9713 57 0
-9713 -9697 0
9713 -57 9697 0
-9714 9699 0
-9714 -9713 0
9714 -9699 9713 0
-9715 9700 0
-9715 -58 0
9715 -9700 58 0
-9716 58 0
-9716 -9700 0
9716 -58 9700 0
-9717 9702 0
-9717 -9716 0
9717 -9702 9716 0
-9718 58 0
-9718 -9702 0
9718 -58 9702 0
-9719 9704 0
-9719 -9718 0
9719 -9704 9718 0
-9720 58 0
-9720 -9704 0
9720 -58 9704 0
-9721 9706 0
-9721 -9720 0
9721 -9706 9720 0
-9722 58 0
-9722 -9706 0
9722 -58 9706 0
-9723 9708 0
-9723 -9722 0
9723 -9708 9722 0
-9724 58 0
-9724 -9708 0
9724 -58 9708 0
-9725 9710 0
-9725 -9724 0
9725 -9710 9724 0
-9726 58 0
-9726 -9710 0
9726 -58 9710 0
-9727 9712 0
-9727 -9726 0
9727 -9712 9726 0
-9728 58 0
-9728 -9712 0
9728 -58 9712 0
-9729 9714 0
-9729 -9728 0
9729 -9714 9728 0
-9730 9715 0
-9730 -58 0
9730 -9715 58 0
-9731 58 0
-9731 -9715 0
9731 -58 9715 0
-9732 9717 0
-9732 -9731 0
9732 -9717 9731 0
-9733 58 0
-9733 -9717 0
9733 -58 9717 0
-9734 9719 0
-9734 -9733 0
9734 -9719 9733 0
-9735 58 0
-9735 -9719 0
9735 -58 9719 0
-9736 9721 0
-9736 -9735 0
9736 -9721 9735 0
-9737 58 0
-9737 -9721 0
9737 -58 9721 0
-9738 9723 0
-9738 -9737 0
9738 -9723 9737 0
-9739 58 0
-9739 -9723 0
9739 -58 9723 0
-9740 9725 0
-9740 -9739 0
9740 -9725 9739 0
-9741 58 0
-9741 -9725 0
9741 -58 9725 0
-9742 9727 0
-9742 -9741 0
9742 -9727 9741 0
-9743 58 0
-9743 -9727 0
9743 -58 9727 0
-9744 9729 0
-9744 -9743 0
9744 -9729 9743 0
-9745 9730 0
-9745 -59 0
9745 -9730 59 0
-9746 59 0
-9746 -9730 0
9746 -59 9730 0
-9747 9732 0
-9747 -9746 0
9747 -9732 9746 0
-9748 59 0
-9748 -9732 0
9748 -59 9732 0
-9749 9734 0
-9749 -9748 0
9749 -9734 9748 0
-9750 59 0
-9750 -9734 0
9750 -59 9734 0
-9751 9736 0
-9751 -9750 0
9751 -9736 9750 0
-9752 59 0
-9752 -9736 0
9752 -59 9736 0
-9753 9738 0
-9753 -9752 0
9753 -9738 9752 0
-9754 59 0
-9754 -9738 0
9754 -59 9738 0
-9755 9740 0
-9755 -9754 0
9755 -9740 9754 0
-9756 59 0
-9756 -9740 0
9756 -59 9740 0
-9757 9742 0
-9757 -9756 0
9757 -9742 9756 0
-9758 59 0
-9758 -9742 0
9758 -59 9742 0
-9759 9744 0
-9759 -9758 0
9759 -9744 9758 0
-9760 9745 0
-9760 -59 0
9760 -9745 59 0
-9761 59 0
-9761 -9745 0
9761 -59 9745 0
-9762 9747 0
-9762 -9761 0
9762 -9747 9761 0
-9763 59 0
-9763 -9747 0
9763 -59 9747 0
-9764 9749 0
-9764 -9763 0
9764 -9749 9763 0
-9765 59 0
-9765 -9749 0
9765 -59 9749 0
-9766 9751 0
-9766 -9765 0
9766 -9751 9765 0
-9767 59 0
-9767 -9751 0
9767 -59 9751 0
-9768 9753 0
-9768 -9767 0
9768 -9753 9767 0
-9769 59 0
-9769 -9753 0
9769 -59 9753 0
-9770 9755 0
-9770 -9769 0
9770 -9755 9769 0
-9771 59 0
-9771 -9755 0
9771 -59 9755 0
-9772 9757 0
-9772 -9771 0
9772 -9757 9771 0
-9773 59 0
-9773 -9757 0
9773 -59 9757 0
-9774 9759 0
-9774 -9773 0
9774 -9759 9773 0
-9775 9760 0
-9775 -60 0
9775 -9760 60 0
-9776 60 0
-9776 -9760 0
9776 -60 9760 0
-9777 9762 0
-9777 -9776 0
9777 -9762 9776 0
-9778 60 0
-9778 -9762 0
9778 -60 9762 0
-9779 9764 0
-9779 -9778 0
9779 -9764 9778 0
-9780 60 0
-9780 -9764 0
9780 -60 9764 0
-9781 9766 0
-9781 -9780 0
9781 -9766 9780 0
-9782 60 0
-9782 -9766 0
9782 -60 9766 0
-9783 9768 0
-9783 -9782 0
9783 -9768 9782 0
-9784 60 0
-9784 -9768 0
9784 -60 9768 0
-9785 9770 0
-9785 -9784 0
9785 -9770 9784 0
-9786 60 0
-9786 -9770 0
9786 -60 9770 0
-9787 9772 0
-9787 -9786 0
9787 -9772 9786 0
-9788 60 0
-9788 -9772 0
9788 -60 9772 0
-9789 9774 0
-9789 -9788 0
9789 -9774 9788 0
-9790 9775 0
-9790 -60 0
9790 -9775 60 0
-9791 60 0
-9791 -9775 0
9791 -60 9775 0
-9792 9777 0
-9792 -9791 0
9792 -9777 9791 0
-9793 60 0
-9793 -9777 0
9793 -60 9777 0
-9794 9779 0
-9794 -9793 0
9794 -9779 9793 0
-9795 60 0
-9795 -9779 0
9795 -60 9779 0
-9796 9781 0
-9796 -9795 0
9796 -9781 9795 0
-9797 60 0
-9797 -9781 0
9797 -60 9781 0
-9798 9783 0
-9798 -9797 0
9798 -9783 9797 0
-9799 60 0
-9799 -9783 0
9799 -60 9783 0
-9800 9785 0
-9800 -9799 0
9800 -9785 9799 0
-9801 60 0
-9801 -9785 0
9801 -60 9785 0
-9802 9787 0
-9802 -9801 0
9802 -9787 9801 0
-9803 60 0
-9803 -9787 0
9803 -60 9787 0
-9804 9789 0
-9804 -9803 0
9804 -9789 9803 0
-9805 9790 0
-9805 -61 0
9805 -9790 61 0
-9806 61 0
-9806 -9790 0
9806 -61 9790 0
-9807 9792 0
-9807 -9806 0
9807 -9792 9806 0
-9808 61 0
-9808 -9792 0
9808 -61 9792 0
-9809 9794 0
-9809 -9808 0
9809 -9794 9808 0
-9810 61 0
-9810 -9794 0
9810 -61 9794 0
-9811 9796 0
-9811 -9810 0
9811 -9796 9810 0
-9812 61 0
-9812 -9796 0
9812 -61 9796 0
-9813 9798 0
-9813 -9812 0
9813 -9798 9812 0
-9814 61 0
-9814 -9798 0
9814 -61 9798 0
-9815 9800 0
-9815 -9814 0
9815 -9800 9814 0
-9816 61 0
-9816 -9800 0
9816 -61 9800 0
-9817 9802 0
-9817 -9816 0
9817 -9802 9816 0
-9818 61 0
-9818 -9802 0
9818 -61 9802 0
-9819 9804 0
-9819 -9818 0
9819 -9804 9818 0
-9820 9805 0
-9820 -61 0
9820 -9805 61 0
-9821 61 0
-9821 -9805 0
9821 -61 9805 0
-9822 9807 0
-9822 -9821 0
9822 -9807 9821 0
-9823 61 0
-9823 -9807 0
9823 -61 9807 0
-9824 9809 0
-9824 -9823 0
9824 -9809 9823 0
-9825 61 0
-9825 -9809 0
9825 -61 9809 0
-9826 9811 0
-9826 -9825 0
9826 -9811 9825 0
-9827 61 0
-9827 -9811 0
9827 -61 9811 0
-9828 9813 0
-9828 -9827 0
9828 -9813 9827 0
-9829 61 0
-9829 -9813 0
9829 -61 9813 0
-9830 9815 0
-9830 -9829 0
9830 -9815 9829 0
-9831 61 0
-9831 -9815 0
9831 -61 9815 0
-9832 9817 0
-9832 -9831 0
9832 -9817 9831 0
-9833 61 0
-9833 -9817 0
9833 -61 9817 0
-9834 9819 0
-9834 -9833 0
9834 -9819 9833 0
-9835 9820 0
-9835 -62 0
9835 -9820 62 0
-9836 62 0
-9836 -9820 0
9836 -62 9820 0
-9837 9822 0
-9837 -9836 0
9837 -9822 9836 0
-9838 62 0
-9838 -9822 0
9838 -62 9822 0
-9839 9824 0
-9839 -9838 0
9839 -9824 9838 0
-9840 62 0
-9840 -9824 0
9840 -62 9824 0
-9841 9826 0
-9841 -9840 0
9841 -9826 9840 0
-9842 62 0
-9842 -9826 0
9842 -62 9826 0
-9843 9828 0
-9843 -9842 0
9843 -9828 9842 0
-9844 62 0
-9844 -9828 0
9844 -62 9828 0
-9845 9830 0
-9845 -9844 0
9845 -9830 9844 0
-9846 62 0
-9846 -9830 0
9846 -62 9830 0
-9847 9832 0
-9847 -9846 0
9847 -9832 9846 0
-9848 62 0
-9848 -9832 0
9848 -62 9832 0
-9849 9834 0
-9849 -9848 0
9849 -9834 9848 0
-9850 9835 0
-9850 -62 0
9850 -9835 62 0
-9851 62 0
-9851 -9835 0
9851 -62 9835 0
-9852 9837 0
-9852 -9851 0
9852 -9837 9851 0
-9853 62 0
-9853 -9837 0
9853 -62 9837 0
-9854 9839 0
-9854 -9853 0
9854 -9839 9853 0
-9855 62 0
-9855 -9839 0
9855 -62 9839 0
-9856 9841 0
-9856 -9855 0
9856 -9841 9855 0
-9857 62 0
-9857 -9841 0
9857 -62 9841 0
-9858 9843 0
-9858 -9857 0
9858 -9843 9857 0
-9859 62 0
-9859 -9843 0
9859 -62 9843 0
-9860 9845 0
-9860 -9859 0
9860 -9845 9859 0
-9861 62 0
-9861 -9845 0
9861 -62 9845 0
-9862 9847 0
-9862 -9861 0
9862 -9847 9861 0
-9863 62 0
-9863 -9847 0
9863 -62 9847 0
-9864 9849 0
-9864 -9863 0
9864 -9849 9863 0
-9865 9850 0
-9865 -63 0
9865 -9850 63 0
-9866 63 0
-9866 -9850 0
9866 -63 9850 0
-9867 9852 0
-9867 -9866 0
9867 -9852 9866 0
-9868 63 0
-9868 -9852 0
9868 -63 9852 0
-9869 9854 0
-9869 -9868 0
9869 -9854 9868 0
-9870 63 0
-9870 -9854 0
9870 -63 9854 0
-9871 9856 0
-9871 -9870 0
9871 -9856 9870 0
-9872 63 0
-9872 -9856 0
9872 -63 9856 0
-9873 9858 0
-9873 -9872 0
9873 -9858 9872 0
-9874 63 0
-9874 -9858 0
9874 -63 9858 0
-9875 9860 0
-9875 -9874 0
9875 -9860 9874 0
-9876 63 0
-9876 -9860 0
9876 -63 9860 0
-9877 9862 0
-9877 -9876 0
9877 -9862 9876 0
-9878 63 0
-9878 -9862 0
9878 -63 9862 0
-9879 9864 0
-9879 -9878 0
9879 -9864 9878 0
-9880 9865 0
-9880 -63 0
9880 -9865 63 0
-9881 63 0
-9881 -9865 0
9881 -63 9865 0
-9882 9867 0
-9882 -9881 0
9882 -9867 9881 0
-9883 63 0
-9883 -9867 0
9883 -63 9867 0
-9884 9869 0
-9884 -9883 0
9884 -9869 9883 0
-9885 63 0
-9885 -9869 0
9885 -63 9869 0
-9886 9871 0
-9886 -9885 0
9886 -9871 9885 0
-9887 63 0
-9887 -9871 0
9887 -63 9871 0
-9888 9873 0
-9888 -9887 0
9888 -9873 9887 0
-9889 63 0
-9889 -9873 0
9889 -63 9873 0
-9890 9875 0
-9890 -9889 0
9890 -9875 9889 0
-9891 63 0
-9891 -9875 0
9891 -63 9875 0
-9892 9877 0
-9892 -9891 0
9892 -9877 9891 0
-9893 63 0
-9893 -9877 0
9893 -63 9877 0
-9894 9879 0
-9894 -9893 0
9894 -9879 9893 0
-9895 9880 0
-9895 -64 0
9895 -9880 64 0
-9896 64 0
-9896 -9880 0
9896 -64 9880 0
-9897 9882 0
-9897 -9896 0
9897 -9882 9896 0
-9898 64 0
-9898 -9882 0
9898 -64 9882 0
-9899 9884 0
-9899 -9898 0
9899 -9884 9898 0
-9900 64 0
-9900 -9884 0
9900 -64 9884 0
-9901 9886 0
-9901 -9900 0
9901 -9886 9900 0
-9902 64 0
-9902 -9886 0
9902 -64 9886 0
-9903 9888 0
-9903 -9902 0
9903 -9888 9902 0
-9904 64 0
-9904 -9888 0
9904 -64 9888 0
-9905 9890 0
-9905 -9904 0
9905 -9890 9904 0
-9906 64 0
-9906 -9890 0
9906 -64 9890 0
-9907 9892 0
-9907 -9906 0
9907 -9892 9906 0
-9908 64 0
-9908 -9892 0
9908 -64 9892 0
-9909 9894 0
-9909 -9908 0
9909 -9894 9908 0
-9910 9895 0
-9910 -65 0
9910 -9895 65 0
-9911 65 0
-9911 -9895 0
9911 -65 9895 0
-9912 9897 0
-9912 -9911 0
9912 -9897 9911 0
-9913 65 0
-9913 -9897 0
9913 -65 9897 0
-9914 9899 0
-9914 -9913 0
9914 -9899 9913 0
-9915 65 0
-9915 -9899 0
9915 -65 9899 0
-9916 9901 0
-9916 -9915 0
9916 -9901 9915 0
-9917 65 0
-9917 -9901 0
9917 -65 9901 0
-9918 9903 0
-9918 -9917 0
9918 -9903 9917 0
-9919 65 0
-9919 -9903 0
9919 -65 9903 0
-9920 9905 0
-9920 -9919 0
9920 -9905 9919 0
-9921 65 0
-9921 -9905 0
9921 -65 9905 0
-9922 9907 0
-9922 -9921 0
9922 -9907 9921 0
-9923 65 0
-9923 -9907 0
9923 -65 9907 0
-9924 9909 0
-9924 -9923 0
9924 -9909 9923 0
-9925 9910 0
-9925 -66 0
9925 -9910 66 0
-9926 66 0
-9926 -9910 0
9926 -66 9910 0
-9927 9912 0
-9927 -9926 0
9927 -9912 9926 0
-9928 66 0
-9928 -9912 0
9928 -66 9912 0
-9929 9914 0
-9929 -9928 0
9929 -9914 9928 0
-9930 66 0
-9930 -9914 0
9930 -66 9914 0
-9931 9916 0
-9931 -9930 0
9931 -9916 9930 0
-9932 66 0
-9932 -9916 0
9932 -66 9916 0
-9933 9918 0
-9933 -9932 0
9933 -9918 9932 0
-9934 66 0
-9934 -9918 0
9934 -66 9918 0
-9935 9920 0
-9935 -9934 0
9935 -9920 9934 0
-9936 66 0
-9936 -9920 0
9936 -66 9920 0
-9937 9922 0
-9937 -9936 0
9937 -9922 9936 0
-9938 66 0
-9938 -9922 0
9938 -66 9922 0
-9939 9924 0
-9939 -9938 0
9939 -9924 9938 0
-9940 9925 0
-9940 -67 0
9940 -9925 67 0
-9941 67 0
-9941 -9925 0
9941 -67 9925 0
-9942 9927 0
-9942 -9941 0
9942 -9927 9941 0
-9943 67 0
-9943 -9927 0
9943 -67 9927 0
-9944 9929 0
-9944 -9943 0
9944 -9929 9943 0
-9945 67 0
-9945 -9929 0
9945 -67 9929 0
-9946 9931 0
-9946 -9945 0
9946 -9931 9945 0
-9947 67 0
-9947 -9931 0
9947 -67 9931 0
-9948 9933 0
-9948 -9947 0
9948 -9933 9947 0
-9949 67 0
-9949 -9933 0
9949 -67 9933 0
-9950 9935 0
-9950 -9949 0
9950 -9935 9949 0
-9951 67 0
-9951 -9935 0
9951 -67 9935 0
-9952 9937 0
-9952 -9951 0
9952 -9937 9951 0
-9953 67 0
-9953 -9937 0
9953 -67 9937 0
-9954 9939 0
-9954 -9953 0
9954 -9939 9953 0
-9955 9940 0
-9955 -68 0
9955 -9940 68 0
-9956 68 0
-9956 -9940 0
9956 -68 9940 0
-9957 9942 0
-9957 -9956 0
9957 -9942 9956 0
-9958 68 0
-9958 -9942 0
9958 -68 9942 0
-9959 9944 0
-9959 -9958 0
9959 -9944 9958 0
-9960 68 0
-9960 -9944 0
9960 -68 9944 0
-9961 9946 0
-9961 -9960 0
9961 -9946 9960 0
-9962 68 0
-9962 -9946 0
9962 -68 9946 0
-9963 9948 0
-9963 -9962 0
9963 -9948 9962 0
-9964 68 0
-9964 -9948 0
9964 -68 9948 0
-9965 9950 0
-9965 -9964 0
9965 -9950 9964 0
-9966 68 0
-9966 -9950 0
9966 -68 9950 0
-9967 9952 0
-9967 -9966 0
9967 -9952 9966 0
-9968 68 0
-9968 -9952 0
9968 -68 9952 0
-9969 9954 0
-9969 -9968 0
9969 -9954 9968 0
-9970 9955 0
-9970 -69 0
9970 -9955 69 0
-9971 69 0
-9971 -9955 0
9971 -69 9955 0
-9972 9957 0
-9972 -9971 0
9972 -9957 9971 0
-9973 69 0
-9973 -9957 0
9973 -69 9957 0
-9974 9959 0
-9974 -9973 0
9974 -9959 9973 0
-9975 69 0
-9975 -9959 0
9975 -69 9959 0
-9976 9961 0
-9976 -9975 0
9976 -9961 9975 0
-9977 69 0
-9977 -9961 0
9977 -69 9961 0
-9978 9963 0
-9978 -9977 0
9978 -9963 9977 0
-9979 69 0
-9979 -9963 0
9979 -69 9963 0
-9980 9965 0
-9980 -9979 0
9980 -9965 9979 0
-9981 69 0
-9981 -9965 0
9981 -69 9965 0
-9982 9967 0
-9982 -9981 0
9982 -9967 9981 0
-9983 69 0
-9983 -9967 0
9983 -69 9967 0
-9984 9969 0
-9984 -9983 0
9984 -9969 9983 0
-9985 9970 0
-9985 -70 0
9985 -9970 70 0
-9986 70 0
-9986 -9970 0
9986 -70 9970 0
-9987 9972 0
-9987 -9986 0
9987 -9972 9986 0
-9988 70 0
-9988 -9972 0
9988 -70 9972 0
-9989 9974 0
-9989 -9988 0
9989 -9974 9988 0
-9990 70 0
-9990 -9974 0
9990 -70 9974 0
-9991 9976 0
-9991 -9990 0
9991 -9976 9990 0
-9992 70 0
-9992 -9976 0
9992 -70 9976 0
-9993 9978 0
-9993 -9992 0
9993 -9978 9992 0
-9994 70 0
-9994 -9978 0
9994 -70 9978 0
-9995 9980 0
-9995 -9994 0
9995 -9980 9994 0
-9996 70 0
-9996 -9980 0
9996 -70 9980 0
-9997 9982 0
-9997 -9996 0
9997 -9982 9996 0
-9998 70 0
-9998 -9982 0
9998 -70 9982 0
-9999 9984 0
-9999 -9998 0
9999 -9984 9998 0
-10000 9985 0
-10000 -71 0
10000 -9985 71 0
-10001 71 0
-10001 -9985 0
10001 -71 9985 0
-10002 9987 0
-10002 -10001 0
10002 -9987 10001 0
-10003 71 0
-10003 -9987 0
10003 -71 9987 0
-10004 9989 0
-10004 -10003 0
10004 -9989 10003 0
-10005 71 0
-10005 -9989 0
10005 -71 9989 0
-10006 9991 0
-10006 -10005 0
10006 -9991 10005 0
-10007 71 0
-10007 -9991 0
10007 -71 9991 0
-10008 9993 0
-10008 -10007 0
10008 -9993 10007 0
-10009 71 0
-10009 -9993 0
10009 -71 9993 0
-10010 9995 0
-10010 -10009 0
10010 -9995 10009 0
-10011 71 0
-10011 -9995 0
10011 -71 9995 0
-10012 9997 0
-10012 -10011 0
10012 -9997 10011 0
-10013 71 0
-10013 -9997 0
10013 -71 9997 0
-10014 9999 0
-10014 -10013 0
10014 -9999 10013 0
-10015 10000 0
-10015 -72 0
10015 -10000 72 0
-10016 72 0
-10016 -10000 0
10016 -72 10000 0
-10017 10002 0
-10017 -10016 0
10017 -10002 10016 0
-10018 72 0
-10018 -10002 0
10018 -72 10002 0
-10019 10004 0
-10019 -10018 0
10019 -10004 10018 0
-10020 72 0
-10020 -10004 0
10020 -72 10004 0
-10021 10006 0
-10021 -10020 0
10021 -10006 10020 0
-10022 72 0
-10022 -10006 0
10022 -72 10006 0
-10023 10008 0
-10023 -10022 0
10023 -10008 10022 0
-10024 72 0
-10024 -10008 0
10024 -72 10008 0
-10025 10010 0
-10025 -10024 0
10025 -10010 10024 0
-10026 72 0
-10026 -10010 0
10026 -72 10010 0
-10027 10012 0
-10027 -10026 0
10027 -10012 10026 0
-10028 72 0
-10028 -10012 0
10028 -72 10012 0
-10029 10014 0
-10029 -10028 0
10029 -10014 10028 0
-10030 10015 0
-10030 -73 0
10030 -10015 73 0
-10031 73 0
-10031 -10015 0
10031 -73 10015 0
-10032 10017 0
-10032 -10031 0
10032 -10017 10031 0
-10033 73 0
-10033 -10017 0
10033 -73 10017 0
-10034 10019 0
-10034 -10033 0
10034 -10019 10033 0
-10035 73 0
-10035 -10019 0
10035 -73 10019 0
-10036 10021 0
-10036 -10035 0
10036 -10021 10035 0
-10037 73 0
-10037 -10021 0
10037 -73 10021 0
-10038 10023 0
-10038 -10037 0
10038 -10023 10037 0
-10039 73 0
-10039 -10023 0
10039 -73 10023 0
-10040 10025 0
-10040 -10039 0
10040 -10025 10039 0
-10041 73 0
-10041 -10025 0
10041 -73 10025 0
-10042 10027 0
-10042 -10041 0
10042 -10027 10041 0
-10043 73 0
-10043 -10027 0
10043 -73 10027 0
-10044 10029 0
-10044 -10043 0
10044 -10029 10043 0
-10045 10030 0
-10045 -74 0
10045 -10030 74 0
-10046 74 0
-10046 -10030 0
10046 -74 10030 0
-10047 10032 0
-10047 -10046 0
10047 -10032 10046 0
-10048 74 0
-10048 -10032 0
10048 -74 10032 0
-10049 10034 0
-10049 -10048 0
10049 -10034 10048 0
-10050 74 0
-10050 -10034 0
10050 -74 10034 0
-10051 10036 0
-10051 -10050 0
10051 -10036 10050 0
-10052 74 0
-10052 -10036 0
10052 -74 10036 0
-10053 10038 0
-10053 -10052 0
10053 -10038 10052 0
-10054 74 0
-10054 -10038 0
10054 -74 10038 0
-10055 10040 0
-10055 -10054 0
10055 -10040 10054 0
-10056 74 0
-10056 -10040 0
10056 -74 10040 0
-10057 10042 0
-10057 -10056 0
10057 -10042 10056 0
-10058 74 0
-10058 -10042 0
10058 -74 10042 0
-10059 10044 0
-10059 -10058 0
10059 -10044 10058 0
-10060 10045 0
-10060 -75 0
10060 -10045 75 0
-10061 75 0
-10061 -10045 0
10061 -75 10045 0
-10062 10047 0
-10062 -10061 0
10062 -10047 10061 0
-10063 75 0
-10063 -10047 0
10063 -75 10047 0
-10064 10049 0
-10064 -10063 0
10064 -10049 10063 0
-10065 75 0
-10065 -10049 0
10065 -75 10049 0
-10066 10051 0
-10066 -10065 0
10066 -10051 10065 0
-10067 75 0
-10067 -10051 0
10067 -75 10051 0
-10068 10053 0
-10068 -10067 0
10068 -10053 10067 0
-10069 75 0
-10069 -10053 0
10069 -75 10053 0
-10070 10055 0
-10070 -10069 0
10070 -10055 10069 0
-10071 75 0
-10071 -10055 0
10071 -75 10055 0
-10072 10057 0
-10072 -10071 0
10072 -10057 10071 0
-10073 75 0
-10073 -10057 0
10073 -75 10057 0
-10074 10059 0
-10074 -10073 0
10074 -10059 10073 0
-10075 10060 0
-10075 -76 0
10075 -10060 76 0
-10076 76 0
-10076 -10060 0
10076 -76 10060 0
-10077 10062 0
-10077 -10076 0
10077 -10062 10076 0
-10078 76 0
-10078 -10062 0
10078 -76 10062 0
-10079 10064 0
-10079 -10078 0
10079 -10064 10078 0
-10080 76 0
-10080 -10064 0
10080 -76 10064 0
-10081 10066 0
-10081 -10080 0
10081 -10066 10080 0
-10082 76 0
-10082 -10066 0
10082 -76 10066 0
-10083 10068 0
-10083 -10082 0
10083 -10068 10082 0
-10084 76 0
-10084 -10068 0
10084 -76 10068 0
-10085 10070 0
-10085 -10084 0
10085 -10070 10084 0
-10086 76 0
-10086 -10070 0
10086 -76 10070 0
-10087 10072 0
-10087 -10086 0
10087 -10072 10086 0
-10088 76 0
-10088 -10072 0
10088 -76 10072 0
-10089 10074 0
-10089 -10088 0
10089 -10074 10088 0
-10090 10075 0
-10090 -77 0
10090 -10075 77 0
-10091 77 0
-10091 -10075 0
10091 -77 10075 0
-10092 10077 0
-10092 -10091 0
10092 -10077 10091 0
-10093 77 0
-10093 -10077 0
10093 -77 10077 0
-10094 10079 0
-10094 -10093 0
10094 -10079 10093 0
-10095 77 0
-10095 -10079 0
10095 -77 10079 0
-10096 10081 0
-10096 -10095 0
10096 -10081 10095 0
-10097 77 0
-10097 -10081 0
10097 -77 10081 0
-10098 10083 0
-10098 -10097 0
10098 -10083 10097 0
-10099 77 0
-10099 -10083 0
10099 -77 10083 0
-10100 10085 0
-10100 -10099 0
10100 -10085 10099 0
-10101 77 0
-10101 -10085 0
10101 -77 10085 0
-10102 10087 0
-10102 -10101 0
10102 -10087 10101 0
-10103 77 0
-10103 -10087 0
10103 -77 10087 0
-10104 10089 0
-10104 -10103 0
10104 -10089 10103 0
-10105 10090 0
-10105 -78 0
10105 -10090 78 0
-10106 78 0
-10106 -10090 0
10106 -78 10090 0
-10107 10092 0
-10107 -10106 0
10107 -10092 10106 0
-10108 78 0
-10108 -10092 0
10108 -78 10092 0
-10109 10094 0
-10109 -10108 0
10109 -10094 10108 0
-10110 78 0
-10110 -10094 0
10110 -78 10094 0
-10111 10096 0
-10111 -10110 0
10111 -10096 10110 0
-10112 78 0
-10112 -10096 0
10112 -78 10096 0
-10113 10098 0
-10113 -10112 0
10113 -10098 10112 0
-10114 78 0
-10114 -10098 0
10114 -78 10098 0
-10115 10100 0
-10115 -10114 0
10115 -10100 10114 0
-10116 78 0
-10116 -10100 0
10116 -78 10100 0
-10117 10102 0
-10117 -10116 0
10117 -10102 10116 0
-10118 78 0
-10118 -10102 0
10118 -78 10102 0
-10119 10104 0
-10119 -10118 0
10119 -10104 10118 0
-10120 10105 0
-10120 -79 0
10120 -10105 79 0
-10121 79 0
-10121 -10105 0
10121 -79 10105 0
-10122 10107 0
-10122 -10121 0
10122 -10107 10121 0
-10123 79 0
-10123 -10107 0
10123 -79 10107 0
-10124 10109 0
-10124 -10123 0
10124 -10109 10123 0
-10125 79 0
-10125 -10109 0
10125 -79 10109 0
-10126 10111 0
-10126 -10125 0
10126 -10111 10125 0
-10127 79 0
-10127 -10111 0
10127 -79 10111 0
-10128 10113 0
-10128 -10127 0
10128 -10113 10127 0
-10129 79 0
-10129 -10113 0
10129 -79 10113 0
-10130 10115 0
-10130 -10129 0
10130 -10115 10129 0
-10131 79 0
-10131 -10115 0
10131 -79 10115 0
-10132 10117 0
-10132 -10131 0
10132 -10117 10131 0
-10133 79 0
-10133 -10117 0
10133 -79 10117 0
-10134 10119 0
-10134 -10133 0
10134 -10119 10133 0
-10135 10120 0
-10135 -80 0
10135 -10120 80 0
-10136 80 0
-10136 -10120 0
10136 -80 10120 0
-10137 10122 0
-10137 -10136 0
10137 -10122 10136 0
-10138 80 0
-10138 -10122 0
10138 -80 10122 0
-10139 10124 0
-10139 -10138 0
10139 -10124 10138 0
-10140 80 0
-10140 -10124 0
10140 -80 10124 0
-10141 10126 0
-10141 -10140 0
10141 -10126 10140 0
-10142 80 0
-10142 -10126 0
10142 -80 10126 0
-10143 10128 0
-10143 -10142 0
10143 -10128 10142 0
-10144 80 0
-10144 -10128 0
10144 -80 10128 0
-10145 10130 0
-10145 -10144 0
10145 -10130 10144 0
-10146 80 0
-10146 -10130 0
10146 -80 10130 0
-10147 10132 0
-10147 -10146 0
10147 -10132 10146 0
-10148 80 0
-10148 -10132 0
10148 -80 10132 0
-10149 10134 0
-10149 -10148 0
10149 -10134 10148 0
-10150 10135 0
-10150 -81 0
10150 -10135 81 0
-10151 81 0
-10151 -10135 0
10151 -81 10135 0
-10152 10137 0
-10152 -10151 0
10152 -10137 10151 0
-10153 81 0
-10153 -10137 0
10153 -81 10137 0
-10154 10139 0
-10154 -10153 0
10154 -10139 10153 0
-10155 81 0
-10155 -10139 0
10155 -81 10139 0
-10156 10141 0
-10156 -10155 0
10156 -10141 10155 0
-10157 81 0
-10157 -10141 0
10157 -81 10141 0
-10158 10143 0
-10158 -10157 0
10158 -10143 10157 0
-10159 81 0
-10159 -10143 0
10159 -81 10143 0
-10160 10145 0
-10160 -10159 0
10160 -10145 10159 0
-10161 81 0
-10161 -10145 0
10161 -81 10145 0
-10162 10147 0
-10162 -10161 0
10162 -10147 10161 0
-10163 81 0
-10163 -10147 0
10163 -81 10147 0
-10164 10149 0
-10164 -10163 0
10164 -10149 10163 0
-10165 10150 0
-10165 -82 0
10165 -10150 82 0
-10166 82 0
-10166 -10150 0
10166 -82 10150 0
-10167 10152 0
-10167 -10166 0
10167 -10152 10166 0
-10168 82 0
-10168 -10152 0
10168 -82 10152 0
-10169 10154 0
-10169 -10168 0
10169 -10154 10168 0
-10170 82 0
-10170 -10154 0
10170 -82 10154 0
-10171 10156 0
-10171 -10170 0
10171 -10156 10170 0
-10172 82 0
-10172 -10156 0
10172 -82 10156 0
-10173 10158 0
-10173 -10172 0
10173 -10158 10172 0
-10174 82 0
-10174 -10158 0
10174 -82 10158 0
-10175 10160 0
-10175 -10174 0
10175 -10160 10174 0
-10176 82 0
-10176 -10160 0
10176 -82 10160 0
-10177 10162 0
-10177 -10176 0
10177 -10162 10176 0
-10178 82 0
-10178 -10162 0
10178 -82 10162 0
-10179 10164 0
-10179 -10178 0
10179 -10164 10178 0
-10180 10165 0
-10180 -83 0
10180 -10165 83 0
-10181 83 0
-10181 -10165 0
10181 -83 10165 0
-10182 10167 0
-10182 -10181 0
10182 -10167 10181 0
-10183 83 0
-10183 -10167 0
10183 -83 10167 0
-10184 10169 0
-10184 -10183 0
10184 -10169 10183 0
-10185 83 0
-10185 -10169 0
10185 -83 10169 0
-10186 10171 0
-10186 -10185 0
10186 -10171 10185 0
-10187 83 0
-10187 -10171 0
10187 -83 10171 0
-10188 10173 0
-10188 -10187 0
10188 -10173 10187 0
-10189 83 0
-10189 -10173 0
10189 -83 10173 0
-10190 10175 0
-10190 -10189 0
10190 -10175 10189 0
-10191 83 0
-10191 -10175 0
10191 -83 10175 0
-10192 10177 0
-10192 -10191 0
10192 -10177 10191 0
-10193 83 0
-10193 -10177 0
10193 -83 10177 0
-10194 10179 0
-10194 -10193 0
10194 -10179 10193 0
-10195 10180 0
-10195 -84 0
10195 -10180 84 0
-10196 84 0
-10196 -10180 0
10196 -84 10180 0
-10197 10182 0
-10197 -10196 0
10197 -10182 10196 0
-10198 84 0
-10198 -10182 0
10198 -84 10182 0
-10199 10184 0
-10199 -10198 0
10199 -10184 10198 0
-10200 84 0
-10200 -10184 0
10200 -84 10184 0
-10201 10186 0
-10201 -10200 0
10201 -10186 10200 0
-10202 84 0
-10202 -10186 0
10202 -84 10186 0
-10203 10188 0
-10203 -10202 0
10203 -10188 10202 0
-10204 84 0
-10204 -10188 0
10204 -84 10188 0
-10205 10190 0
-10205 -10204 0
10205 -10190 10204 0
-10206 84 0
-10206 -10190 0
10206 -84 10190 0
-10207 10192 0
-10207 -10206 0
10207 -10192 10206 0
-10208 84 0
-10208 -10192 0
10208 -84 10192 0
-10209 10194 0
-10209 -10208 0
10209 -10194 10208 0
-10209 0
-10210 -33 0
-10210 -34 0
10210 33 34 0
-10211 10210 0
-10211 -35 0
10211 -10210 35 0
-10212 35 0
-10212 -10210 0
10212 -35 10210 0
-10213 -126 0
-10213 -10212 0
10213 126 10212 0
-10214 35 0
-10214 126 0
10214 -35 -126 0
-10215 10211 0
-10215 -36 0
10215 -10211 36 0
-10216 36 0
-10216 -10211 0
10216 -36 10211 0
-10217 10213 0
-10217 -10216 0
10217 -10213 10216 0
-10218 36 0
-10218 -10213 0
10218 -36 10213 0
-10219 -10214 0
-10219 -10218 0
10219 10214 10218 0
-10220 36 0
-10220 10214 0
10220 -36 -10214 0
-10221 10215 0
-10221 -37 0
10221 -10215 37 0
-10222 37 0
-10222 -10215 0
10222 -37 10215 0
-10223 10217 0
-10223 -10222 0
10223 -10217 10222 0
-10224 37 0
-10224 -10217 0
10224 -37 10217 0
-10225 10219 0
-10225 -10224 0
10225 -10219 10224 0
-10226 37 0
-10226 -10219 0
10226 -37 10219 0
-10227 -10220 0
-10227 -10226 0
10227 10220 10226 0
-10228 37 0
-10228 10220 0
10228 -37 -10220 0
-10229 10221 0
-10229 -38 0
10229 -10221 38 0
-10230 38 0
-10230 -10221 0
10230 -38 10221 0
-10231 10223 0
-10231 -10230 0
10231 -10223 10230 0
-10232 38 0
-10232 -10223 0
10232 -38 10223 0
-10233 10225 0
-10233 -10232 0
10233 -10225 10232 0
-10234 38 0
-10234 -10225 0
10234 -38 10225 0
-10235 10227 0
-10235 -10234 0
10235 -10227 10234 0
-10236 38 0
-10236 -10227 0
10236 -38 10227 0
-10237 -10228 0
-10237 -10236 0
10237 10228 10236 0
-10238 38 0
-10238 10228 0
10238 -38 -10228 0
-10239 10229 0
-10239 -39 0
10239 -10229 39 0
-10240 39 0
-10240 -10229 0
10240 -39 10229 0
-10241 10231 0
-10241 -10240 0
10241 -10231 10240 0
-10242 39 0
-10242 -10231 0
10242 -39 10231 0
-10243 10233 0
-10243 -10242 0
10243 -10233 10242 0
-10244 39 0
-10244 -10233 0
10244 -39 10233 0
-10245 10235 0
-10245 -10244 0
10245 -10235 10244 0
-10246 39 0
-10246 -10235 0
10246 -39 10235 0
-10247 10237 0
-10247 -10246 0
10247 -10237 10246 0
-10248 39 0
-10248 -10237 0
10248 -39 10237 0
-10249 -10238 0
-10249 -10248 0
10249 10238 10248 0
-10250 39 0
-10250 10238 0
10250 -39 -10238 0
-10251 10239 0
-10251 -40 0
10251 -10239 40 0
-10252 40 0
-10252 -10239 0
10252 -40 10239 0
-10253 10241 0
-10253 -10252 0
10253 -10241 10252 0
-10254 40 0
-10254 -10241 0
10254 -40 10241 0
-10255 10243 0
-10255 -10254 0
10255 -10243 10254 0
-10256 40 0
-10256 -10243 0
10256 -40 10243 0
-10257 10245 0
-10257 -10256 0
10257 -10245 10256 0
-10258 40 0
-10258 -10245 0
10258 -40 10245 0
-10259 10247 0
-10259 -10258 0
10259 -10247 10258 0
-10260 40 0
-10260 -10247 0
10260 -40 10247 0
-10261 10249 0
-10261 -10260 0
10261 -10249 10260 0
-10262 40 0
-10262 -10249 0
10262 -40 10249 0
-10263 -10250 0
-10263 -10262 0
10263 10250 10262 0
-10264 40 0
-10264 10250 0
10264 -40 -10250 0
-10265 10251 0
-10265 -41 0
10265 -10251 41 0
-10266 41 0
-10266 -10251 0
10266 -41 10251 0
-10267 10253 0
-10267 -10266 0
10267 -10253 10266 0
-10268 41 0
-10268 -10253 0
10268 -41 10253 0
-10269 10255 0
-10269 -10268 0
10269 -10255 10268 0
-10270 41 0
-10270 -10255 0
10270 -41 10255 0
-10271 10257 0
-10271 -10270 0
10271 -10257 10270 0
-10272 41 0
-10272 -10257 0
10272 -41 10257 0
-10273 10259 0
-10273 -10272 0
10273 -10259 10272 0
-10274 41 0
-10274 -10259 0
10274 -41 10259 0
-10275 10261 0
-10275 -10274 0
10275 -10261 10274 0
-10276 41 0
-10276 -10261 0
10276 -41 10261 0
-10277 10263 0
-10277 -10276 0
10277 -10263 10276 0
-10278 41 0
-10278 -10263 0
10278 -41 10263 0
-10279 -10264 0
-10279 -10278 0
10279 10264 10278 0
-10280 10265 0
-10280 -42 0
10280 -10265 42 0
-10281 42 0
-10281 -10265 0
10281 -42 10265 0
-10282 10267 0
-10282 -10281 0
10282 -10267 10281 0
-10283 42 0
-10283 -10267 0
10283 -42 10267 0
-10284 10269 0
-10284 -10283 0
10284 -10269 10283 0
-10285 42 0
-10285 -10269 0
10285 -42 10269 0
-10286 10271 0
-10286 -10285 0
10286 -10271 10285 0
-10287 42 0
-10287 -10271 0
10287 -42 10271 0
-10288 10273 0
-10288 -10287 0
10288 -10273 10287 0
-10289 42 0
-10289 -10273 0
10289 -42 10273 0
-10290 10275 0
-10290 -10289 0
10290 -10275 10289 0
-10291 42 0
-10291 -10275 0
10291 -42 10275 0
-10292 10277 0
-10292 -10291 0
10292 -10277 10291 0
-10293 42 0
-10293 -10277 0
10293 -42 10277 0
-10294 10279 0
-10294 -10293 0
10294 -10279 10293 0
-10295 10280 0
-10295 -43 0
10295 -10280 43 0
-10296 43 0
-10296 -10280 0
10296 -43 10280 0
-10297 10282 0
-10297 -10296 0
10297 -10282 10296 0
-10298 43 0
-10298 -10282 0
10298 -43 10282 0
-10299 10284 0
-10299 -10298 0
10299 -10284 10298 0
-10300 43 0
-10300 -10284 0
10300 -43 10284 0
-10301 10286 0
-10301 -10300 0
10301 -10286 10300 0
-10302 43 0
-10302 -10286 0
10302 -43 10286 0
-10303 10288 0
-10303 -10302 0
10303 -10288 10302 0
-10304 43 0
-10304 -10288 0
10304 -43 10288 0
-10305 10290 0
-10305 -10304 0
10305 -10290 10304 0
-10306 43 0
-10306 -10290 0
10306 -43 10290 0
-10307 10292 0
-10307 -10306 0
10307 -10292 10306 0
-10308 43 0
-10308 -10292 0
10308 -43 10292 0
-10309 10294 0
-10309 -10308 0
10309 -10294 10308 0
-10310 10295 0
-10310 -44 0
10310 -10295 44 0
-10311 44 0
-10311 -10295 0
10311 -44 10295 0
-10312 10297 0
-10312 -10311 0
10312 -10297 10311 0
-10313 44 0
-10313 -10297 0
10313 -44 10297 0
-10314 10299 0
-10314 -10313 0
10314 -10299 10313 0
-10315 44 0
-10315 -10299 0
10315 -44 10299 0
-10316 10301 0
-10316 -10315 0
10316 -10301 10315 0
-10317 44 0
-10317 -10301 0
10317 -44 10301 0
-10318 10303 0
-10318 -10317 0
10318 -10303 10317 0
-10319 44 0
-10319 -10303 0
10319 -44 10303 0
-10320 10305 0
-10320 -10319 0
10320 -10305 10319 0
-10321 44 0
-10321 -10305 0
10321 -44 10305 0
-10322 10307 0
-10322 -10321 0
10322 -10307 10321 0
-10323 44 0
-10323 -10307 0
10323 -44 10307 0
-10324 10309 0
-10324 -10323 0
10324 -10309 10323 0
-10325 10310 0
-10325 -45 0
10325 -10310 45 0
-10326 45 0
-10326 -10310 0
10326 -45 10310 0
-10327 10312 0
-10327 -10326 0
10327 -10312 10326 0
-10328 45 0
-10328 -10312 0
10328 -45 10312 0
-10329 10314 0
-10329 -10328 0
10329 -10314 10328 0
-10330 45 0
-10330 -10314 0
10330 -45 10314 0
-10331 10316 0
-10331 -10330 0
10331 -10316 10330 0
-10332 45 0
-10332 -10316 0
10332 -45 10316 0
-10333 10318 0
-10333 -10332 0
10333 -10318 10332 0
-10334 45 0
-10334 -10318 0
10334 -45 10318 0
-10335 10320 0
-10335 -10334 0
10335 -10320 10334 0
-10336 45 0
-10336 -10320 0
10336 -45 10320 0
-10337 10322 0
-10337 -10336 0
10337 -10322 10336 0
-10338 45 0
-10338 -10322 0
10338 -45 10322 0
-10339 10324 0
-10339 -10338 0
10339 -10324 10338 0
-10340 10325 0
-10340 -46 0
10340 -10325 46 0
-10341 46 0
-10341 -10325 0
10341 -46 10325 0
-10342 10327 0
-10342 -10341 0
10342 -10327 10341 0
-10343 46 0
-10343 -10327 0
10343 -46 10327 0
-10344 10329 0
-10344 -10343 0
10344 -10329 10343 0
-10345 46 0
-10345 -10329 0
10345 -46 10329 0
-10346 10331 0
-10346 -10345 0
10346 -10331 10345 0
-10347 46 0
-10347 -10331 0
10347 -46 10331 0
-10348 10333 0
-10348 -10347 0
10348 -10333 10347 0
-10349 46 0
-10349 -10333 0
10349 -46 10333 0
-10350 10335 0
-10350 -10349 0
10350 -10335 10349 0
-10351 46 0
-10351 -10335 0
10351 -46 10335 0
-10352 10337 0
-10352 -10351 0
10352 -10337 10351 0
-10353 46 0
-10353 -10337 0
10353 -46 10337 0
-10354 10339 0
-10354 -10353 0
10354 -10339 10353 0
-10355 10340 0
-10355 -47 0
10355 -10340 47 0
-10356 47 0
-10356 -10340 0
10356 -47 10340 0
-10357 10342 0
-10357 -10356 0
10357 -10342 10356 0
-10358 47 0
-10358 -10342 0
10358 -47 10342 0
-10359 10344 0
-10359 -10358 0
10359 -10344 10358 0
-10360 47 0
-10360 -10344 0
10360 -47 10344 0
-10361 10346 0
-10361 -10360 0
10361 -10346 10360 0
-10362 47 0
-10362 -10346 0
10362 -47 10346 0
-10363 10348 0
-10363 -10362 0
10363 -10348 10362 0
-10364 47 0
-10364 -10348 0
10364 -47 10348 0
-10365 10350 0
-10365 -10364 0
10365 -10350 10364 0
-10366 47 0
-10366 -10350 0
10366 -47 10350 0
-10367 10352 0
-10367 -10366 0
10367 -10352 10366 0
-10368 47 0
-10368 -10352 0
10368 -47 10352 0
-10369 10354 0
-10369 -10368 0
10369 -10354 10368 0
-10370 10355 0
-10370 -48 0
10370 -10355 48 0
-10371 48 0
-10371 -10355 0
10371 -48 10355 0
-10372 10357 0
-10372 -10371 0
10372 -10357 10371 0
-10373 48 0
-10373 -10357 0
10373 -48 10357 0
-10374 10359 0
-10374 -10373 0
10374 -10359 10373 0
-10375 48 0
-10375 -10359 0
10375 -48 10359 0
-10376 10361 0
-10376 -10375 0
10376 -10361 10375 0
-10377 48 0
-10377 -10361 0
10377 -48 10361 0
-10378 10363 0
-10378 -10377 0
10378 -10363 10377 0
-10379 48 0
-10379 -10363 0
10379 -48 10363 0
-10380 10365 0
-10380 -10379 0
10380 -10365 10379 0
-10381 48 0
-10381 -10365 0
10381 -48 10365 0
-10382 10367 0
-10382 -10381 0
10382 -10367 10381 0
-10383 48 0
-10383 -10367 0
10383 -48 10367 0
-10384 10369 0
-10384 -10383 0
10384 -10369 10383 0
-10385 10370 0
-10385 -49 0
10385 -10370 49 0
-10386 49 0
-10386 -10370 0
10386 -49 10370 0
-10387 10372 0
-10387 -10386 0
10387 -10372 10386 0
-10388 49 0
-10388 -10372 0
10388 -49 10372 0
-10389 10374 0
-10389 -10388 0
10389 -10374 10388 0
-10390 49 0
-10390 -10374 0
10390 -49 10374 0
-10391 10376 0
-10391 -10390 0
10391 -10376 10390 0
-10392 49 0
-10392 -10376 0
10392 -49 10376 0
-10393 10378 0
-10393 -10392 0
10393 -10378 10392 0
-10394 49 0
-10394 -10378 0
10394 -49 10378 0
-10395 10380 0
-10395 -10394 0
10395 -10380 10394 0
-10396 49 0
-10396 -10380 0
10396 -49 10380 0
-10397 10382 0
-10397 -10396 0
10397 -10382 10396 0
-10398 49 0
-10398 -10382 0
10398 -49 10382 0
-10399 10384 0
-10399 -10398 0
10399 -10384 10398 0
-10400 10385 0
-10400 -50 0
10400 -10385 50 0
-10401 50 0
-10401 -10385 0
10401 -50 10385 0
-10402 10387 0
-10402 -10401 0
10402 -10387 10401 0
-10403 50 0
-10403 -10387 0
10403 -50 10387 0
-10404 10389 0
-10404 -10403 0
10404 -10389 10403 0
-10405 50 0
-10405 -10389 0
10405 -50 10389 0
-10406 10391 0
-10406 -10405 0
10406 -10391 10405 0
-10407 50 0
-10407 -10391 0
10407 -50 10391 0
-10408 10393 0
-10408 -10407 0
10408 -10393 10407 0
-10409 50 0
-10409 -10393 0
10409 -50 10393 0
-10410 10395 0
-10410 -10409 0
10410 -10395 10409 0
-10411 50 0
-10411 -10395 0
10411 -50 10395 0
-10412 10397 0
-10412 -10411 0
10412 -10397 10411 0
-10413 50 0
-10413 -10397 0
10413 -50 10397 0
-10414 10399 0
-10414 -10413 0
10414 -10399 10413 0
-10415 10400 0
-10415 -51 0
10415 -10400 51 0
-10416 51 0
-10416 -10400 0
10416 -51 10400 0
-10417 10402 0
-10417 -10416 0
10417 -10402 10416 0
-10418 51 0
-10418 -10402 0
10418 -51 10402 0
-10419 10404 0
-10419 -10418 0
10419 -10404 10418 0
-10420 51 0
-10420 -10404 0
10420 -51 10404 0
-10421 10406 0
-10421 -10420 0
10421 -10406 10420 0
-10422 51 0
-10422 -10406 0
10422 -51 10406 0
-10423 10408 0
-10423 -10422 0
10423 -10408 10422 0
-10424 51 0
-10424 -10408 0
10424 -51 10408 0
-10425 10410 0
-10425 -10424 0
10425 -10410 10424 0
-10426 51 0
-10426 -10410 0
10426 -51 10410 0
-10427 10412 0
-10427 -10426 0
10427 -10412 10426 0
-10428 51 0
-10428 -10412 0
10428 -51 10412 0
-10429 10414 0
-10429 -10428 0
10429 -10414 10428 0
-10430 10415 0
-10430 -52 0
10430 -10415 52 0
-10431 52 0
-10431 -10415 0
10431 -52 10415 0
-10432 10417 0
-10432 -10431 0
10432 -10417 10431 0
-10433 52 0
-10433 -10417 0
10433 -52 10417 0
-10434 10419 0
-10434 -10433 0
10434 -10419 10433 0
-10435 52 0
-10435 -10419 0
10435 -52 10419 0
-10436 10421 0
-10436 -10435 0
10436 -10421 10435 0
-10437 52 0
-10437 -10421 0
10437 -52 10421 0
-10438 10423 0
-10438 -10437 0
10438 -10423 10437 0
-10439 52 0
-10439 -10423 0
10439 -52 10423 0
-10440 10425 0
-10440 -10439 0
10440 -10425 10439 0
-10441 52 0
-10441 -10425 0
10441 -52 10425 0
-10442 10427 0
-10442 -10441 0
10442 -10427 10441 0
-10443 52 0
-10443 -10427 0
10443 -52 10427 0
-10444 10429 0
-10444 -10443 0
10444 -10429 10443 0
-10445 10430 0
-10445 -53 0
10445 -10430 53 0
-10446 53 0
-10446 -10430 0
10446 -53 10430 0
-10447 10432 0
-10447 -10446 0
10447 -10432 10446 0
-10448 53 0
-10448 -10432 0
10448 -53 10432 0
-10449 10434 0
-10449 -10448 0
10449 -10434 10448 0
-10450 53 0
-10450 -10434 0
10450 -53 10434 0
-10451 10436 0
-10451 -10450 0
10451 -10436 10450 0
-10452 53 0
-10452 -10436 0
10452 -53 10436 0
-10453 10438 0
-10453 -10452 0
10453 -10438 10452 0
-10454 53 0
-10454 -10438 0
10454 -53 10438 0
-10455 10440 0
-10455 -10454 0
10455 -10440 10454 0
-10456 53 0
-10456 -10440 0
10456 -53 10440 0
-10457 10442 0
-10457 -10456 0
10457 -10442 10456 0
-10458 53 0
-10458 -10442 0
10458 -53 10442 0
-10459 10444 0
-10459 -10458 0
10459 -10444 10458 0
-10460 10445 0
-10460 -64 0
10460 -10445 64 0
-10461 64 0
-10461 -10445 0
10461 -64 10445 0
-10462 10447 0
-10462 -10461 0
10462 -10447 10461 0
-10463 64 0
-10463 -10447 0
10463 -64 10447 0
-10464 10449 0
-10464 -10463 0
10464 -10449 10463 0
-10465 64 0
-10465 -10449 0
10465 -64 10449 0
-10466 10451 0
-10466 -10465 0
10466 -10451 10465 0
-10467 64 0
-10467 -10451 0
10467 -64 10451 0
-10468 10453 0
-10468 -10467 0
10468 -10453 10467 0
-10469 64 0
-10469 -10453 0
10469 -64 10453 0
-10470 10455 0
-10470 -10469 0
10470 -10455 10469 0
-10471 64 0
-10471 -10455 0
10471 -64 10455 0
-10472 10457 0
-10472 -10471 0
10472 -10457 10471 0
-10473 64 0
-10473 -10457 0
10473 -64 10457 0
-10474 10459 0
-10474 -10473 0
10474 -10459 10473 0
-10475 10460 0
-10475 -65 0
10475 -10460 65 0
-10476 65 0
-10476 -10460 0
10476 -65 10460 0
-10477 10462 0
-10477 -10476 0
10477 -10462 10476 0
-10478 65 0
-10478 -10462 0
10478 -65 10462 0
-10479 10464 0
-10479 -10478 0
10479 -10464 10478 0
-10480 65 0
-10480 -10464 0
10480 -65 10464 0
-10481 10466 0
-10481 -10480 0
10481 -10466 10480 0
-10482 65 0
-10482 -10466 0
10482 -65 10466 0
-10483 10468 0
-10483 -10482 0
10483 -10468 10482 0
-10484 65 0
-10484 -10468 0
10484 -65 10468 0
-10485 10470 0
-10485 -10484 0
10485 -10470 10484 0
-10486 65 0
-10486 -10470 0
10486 -65 10470 0
-10487 10472 0
-10487 -10486 0
10487 -10472 10486 0
-10488 65 0
-10488 -10472 0
10488 -65 10472 0
-10489 10474 0
-10489 -10488 0
10489 -10474 10488 0
-10490 10475 0
-10490 -66 0
10490 -10475 66 0
-10491 66 0
-10491 -10475 0
10491 -66 10475 0
-10492 10477 0
-10492 -10491 0
10492 -10477 10491 0
-10493 66 0
-10493 -10477 0
10493 -66 10477 0
-10494 10479 0
-10494 -10493 0
10494 -10479 10493 0
-10495 66 0
-10495 -10479 0
10495 -66 10479 0
-10496 10481 0
-10496 -10495 0
10496 -10481 10495 0
-10497 66 0
-10497 -10481 0
10497 -66 10481 0
-10498 10483 0
-10498 -10497 0
10498 -10483 10497 0
-10499 66 0
-10499 -10483 0
10499 -66 10483 0
-10500 10485 0
-10500 -10499 0
10500 -10485 10499 0
-10501 66 0
-10501 -10485 0
10501 -66 10485 0
-10502 10487 0
-10502 -10501 0
10502 -10487 10501 0
-10503 66 0
-10503 -10487 0
10503 -66 10487 0
-10504 10489 0
-10504 -10503 0
10504 -10489 10503 0
-10505 10490 0
-10505 -67 0
10505 -10490 67 0
-10506 67 0
-10506 -10490 0
10506 -67 10490 0
-10507 10492 0
-10507 -10506 0
10507 -10492 10506 0
-10508 67 0
-10508 -10492 0
10508 -67 10492 0
-10509 10494 0
-10509 -10508 0
10509 -10494 10508 0
-10510 67 0
-10510 -10494 0
10510 -67 10494 0
-10511 10496 0
-10511 -10510 0
10511 -10496 10510 0
-10512 67 0
-10512 -10496 0
10512 -67 10496 0
-10513 10498 0
-10513 -10512 0
10513 -10498 10512 0
-10514 67 0
-10514 -10498 0
10514 -67 10498 0
-10515 10500 0
-10515 -10514 0
10515 -10500 10514 0
-10516 67 0
-10516 -10500 0
10516 -67 10500 0
-10517 10502 0
-10517 -10516 0
10517 -10502 10516 0
-10518 67 0
-10518 -10502 0
10518 -67 10502 0
-10519 10504 0
-10519 -10518 0
10519 -10504 10518 0
-10520 10505 0
-10520 -68 0
10520 -10505 68 0
-10521 68 0
-10521 -10505 0
10521 -68 10505 0
-10522 10507 0
-10522 -10521 0
10522 -10507 10521 0
-10523 68 0
-10523 -10507 0
10523 -68 10507 0
-10524 10509 0
-10524 -10523 0
10524 -10509 10523 0
-10525 68 0
-10525 -10509 0
10525 -68 10509 0
-10526 10511 0
-10526 -10525 0
10526 -10511 10525 0
-10527 68 0
-10527 -10511 0
10527 -68 10511 0
-10528 10513 0
-10528 -10527 0
10528 -10513 10527 0
-10529 68 0
-10529 -10513 0
10529 -68 10513 0
-10530 10515 0
-10530 -10529 0
10530 -10515 10529 0
-10531 68 0
-10531 -10515 0
10531 -68 10515 0
-10532 10517 0
-10532 -10531 0
10532 -10517 10531 0
-10533 68 0
-10533 -10517 0
10533 -68 10517 0
-10534 10519 0
-10534 -10533 0
10534 -10519 10533 0
-10535 10520 0
-10535 -69 0
10535 -10520 69 0
-10536 69 0
-10536 -10520 0
10536 -69 10520 0
-10537 10522 0
-10537 -10536 0
10537 -10522 10536 0
-10538 69 0
-10538 -10522 0
10538 -69 10522 0
-10539 10524 0
-10539 -10538 0
10539 -10524 10538 0
-10540 69 0
-10540 -10524 0
10540 -69 10524 0
-10541 10526 0
-10541 -10540 0
10541 -10526 10540 0
-10542 69 0
-10542 -10526 0
10542 -69 10526 0
-10543 10528 0
-10543 -10542 0
10543 -10528 10542 0
-10544 69 0
-10544 -10528 0
10544 -69 10528 0
-10545 10530 0
-10545 -10544 0
10545 -10530 10544 0
-10546 69 0
-10546 -10530 0
10546 -69 10530 0
-10547 10532 0
-10547 -10546 0
10547 -10532 10546 0
-10548 69 0
-10548 -10532 0
10548 -69 10532 0
-10549 10534 0
-10549 -10548 0
10549 -10534 10548 0
-10550 10535 0
-10550 -70 0
10550 -10535 70 0
-10551 70 0
-10551 -10535 0
10551 -70 10535 0
-10552 10537 0
-10552 -10551 0
10552 -10537 10551 0
-10553 70 0
-10553 -10537 0
10553 -70 10537 0
-10554 10539 0
-10554 -10553 0
10554 -10539 10553 0
-10555 70 0
-10555 -10539 0
10555 -70 10539 0
-10556 10541 0
-10556 -10555 0
10556 -10541 10555 0
-10557 70 0
-10557 -10541 0
10557 -70 10541 0
-10558 10543 0
-10558 -10557 0
10558 -10543 10557 0
-10559 70 0
-10559 -10543 0
10559 -70 10543 0
-10560 10545 0
-10560 -10559 0
10560 -10545 10559 0
-10561 70 0
-10561 -10545 0
10561 -70 10545 0
-10562 10547 0
-10562 -10561 0
10562 -10547 10561 0
-10563 70 0
-10563 -10547 0
10563 -70 10547 0
-10564 10549 0
-10564 -10563 0
10564 -10549 10563 0
-10565 10550 0
-10565 -71 0
10565 -10550 71 0
-10566 71 0
-10566 -10550 0
10566 -71 10550 0
-10567 10552 0
-10567 -10566 0
10567 -10552 10566 0
-10568 71 0
-10568 -10552 0
10568 -71 10552 0
-10569 10554 0
-10569 -10568 0
10569 -10554 10568 0
-10570 71 0
-10570 -10554 0
10570 -71 10554 0
-10571 10556 0
-10571 -10570 0
10571 -10556 10570 0
-10572 71 0
-10572 -10556 0
10572 -71 10556 0
-10573 10558 0
-10573 -10572 0
10573 -10558 10572 0
-10574 71 0
-10574 -10558 0
10574 -71 10558 0
-10575 10560 0
-10575 -10574 0
10575 -10560 10574 0
-10576 71 0
-10576 -10560 0
10576 -71 10560 0
-10577 10562 0
-10577 -10576 0
10577 -10562 10576 0
-10578 71 0
-10578 -10562 0
10578 -71 10562 0
-10579 10564 0
-10579 -10578 0
10579 -10564 10578 0
-10580 10565 0
-10580 -72 0
10580 -10565 72 0
-10581 72 0
-10581 -10565 0
10581 -72 10565 0
-10582 10567 0
-10582 -10581 0
10582 -10567 10581 0
-10583 72 0
-10583 -10567 0
10583 -72 10567 0
-10584 10569 0
-10584 -10583 0
10584 -10569 10583 0
-10585 72 0
-10585 -10569 0
10585 -72 10569 0
-10586 10571 0
-10586 -10585 0
10586 -10571 10585 0
-10587 72 0
-10587 -10571 0
10587 -72 10571 0
-10588 10573 0
-10588 -10587 0
10588 -10573 10587 0
-10589 72 0
-10589 -10573 0
10589 -72 10573 0
-10590 10575 0
-10590 -10589 0
10590 -10575 10589 0
-10591 72 0
-10591 -10575 0
10591 -72 10575 0
-10592 10577 0
-10592 -10591 0
10592 -10577 10591 0
-10593 72 0
-10593 -10577 0
10593 -72 10577 0
-10594 10579 0
-10594 -10593 0
10594 -10579 10593 0
-10595 10580 0
-10595 -73 0
10595 -10580 73 0
-10596 73 0
-10596 -10580 0
10596 -73 10580 0
-10597 10582 0
-10597 -10596 0
10597 -10582 10596 0
-10598 73 0
-10598 -10582 0
10598 -73 10582 0
-10599 10584 0
-10599 -10598 0
10599 -10584 10598 0
-10600 73 0
-10600 -10584 0
10600 -73 10584 0
-10601 10586 0
-10601 -10600 0
10601 -10586 10600 0
-10602 73 0
-10602 -10586 0
10602 -73 10586 0
-10603 10588 0
-10603 -10602 0
10603 -10588 10602 0
-10604 73 0
-10604 -10588 0
10604 -73 10588 0
-10605 10590 0
-10605 -10604 0
10605 -10590 10604 0
-10606 73 0
-10606 -10590 0
10606 -73 10590 0
-10607 10592 0
-10607 -10606 0
10607 -10592 10606 0
-10608 73 0
-10608 -10592 0
10608 -73 10592 0
-10609 10594 0
-10609 -10608 0
10609 -10594 10608 0
-10610 10595 0
-10610 -74 0
10610 -10595 74 0
-10611 74 0
-10611 -10595 0
10611 -74 10595 0
-10612 10597 0
-10612 -10611 0
10612 -10597 10611 0
-10613 74 0
-10613 -10597 0
10613 -74 10597 0
-10614 10599 0
-10614 -10613 0
10614 -10599 10613 0
-10615 74 0
-10615 -10599 0
10615 -74 10599 0
-10616 10601 0
-10616 -10615 0
10616 -10601 10615 0
-10617 74 0
-10617 -10601 0
10617 -74 10601 0
-10618 10603 0
-10618 -10617 0
10618 -10603 10617 0
-10619 74 0
-10619 -10603 0
10619 -74 10603 0
-10620 10605 0
-10620 -10619 0
10620 -10605 10619 0
-10621 74 0
-10621 -10605 0
10621 -74 10605 0
-10622 10607 0
-10622 -10621 0
10622 -10607 10621 0
-10623 74 0
-10623 -10607 0
10623 -74 10607 0
-10624 10609 0
-10624 -10623 0
10624 -10609 10623 0
-10625 10610 0
-10625 -75 0
10625 -10610 75 0
-10626 75 0
-10626 -10610 0
10626 -75 10610 0
-10627 10612 0
-10627 -10626 0
10627 -10612 10626 0
-10628 75 0
-10628 -10612 0
10628 -75 10612 0
-10629 10614 0
-10629 -10628 0
10629 -10614 10628 0
-10630 75 0
-10630 -10614 0
10630 -75 10614 0
-10631 10616 0
-10631 -10630 0
10631 -10616 10630 0
-10632 75 0
-10632 -10616 0
10632 -75 10616 0
-10633 10618 0
-10633 -10632 0
10633 -10618 10632 0
-10634 75 0
-10634 -10618 0
10634 -75 10618 0
-10635 10620 0
-10635 -10634 0
10635 -10620 10634 0
-10636 75 0
-10636 -10620 0
10636 -75 10620 0
-10637 10622 0
-10637 -10636 0
10637 -10622 10636 0
-10638 75 0
-10638 -10622 0
10638 -75 10622 0
-10639 10624 0
-10639 -10638 0
10639 -10624 10638 0
-10640 10625 0
-10640 -76 0
10640 -10625 76 0
-10641 76 0
-10641 -10625 0
10641 -76 10625 0
-10642 10627 0
-10642 -10641 0
10642 -10627 10641 0
-10643 76 0
-10643 -10627 0
10643 -76 10627 0
-10644 10629 0
-10644 -10643 0
10644 -10629 10643 0
-10645 76 0
-10645 -10629 0
10645 -76 10629 0
-10646 10631 0
-10646 -10645 0
10646 -10631 10645 0
-10647 76 0
-10647 -10631 0
10647 -76 10631 0
-10648 10633 0
-10648 -10647 0
10648 -10633 10647 0
-10649 76 0
-10649 -10633 0
10649 -76 10633 0
-10650 10635 0
-10650 -10649 0
10650 -10635 10649 0
-10651 76 0
-10651 -10635 0
10651 -76 10635 0
-10652 10637 0
-10652 -10651 0
10652 -10637 10651 0
-10653 76 0
-10653 -10637 0
10653 -76 10637 0
-10654 10639 0
-10654 -10653 0
10654 -10639 10653 0
-10655 10640 0
-10655 -77 0
10655 -10640 77 0
-10656 77 0
-10656 -10640 0
10656 -77 10640 0
-10657 10642 0
-10657 -10656 0
10657 -10642 10656 0
-10658 77 0
-10658 -10642 0
10658 -77 10642 0
-10659 10644 0
-10659 -10658 0
10659 -10644 10658 0
-10660 77 0
-10660 -10644 0
10660 -77 10644 0
-10661 10646 0
-10661 -10660 0
10661 -10646 10660 0
-10662 77 0
-10662 -10646 0
10662 -77 10646 0
-10663 10648 0
-10663 -10662 0
10663 -10648 10662 0
-10664 77 0
-10664 -10648 0
10664 -77 10648 0
-10665 10650 0
-10665 -10664 0
10665 -10650 10664 0
-10666 77 0
-10666 -10650 0
10666 -77 10650 0
-10667 10652 0
-10667 -10666 0
10667 -10652 10666 0
-10668 77 0
-10668 -10652 0
10668 -77 10652 0
-10669 10654 0
-10669 -10668 0
10669 -10654 10668 0
-10670 10655 0
-10670 -78 0
10670 -10655 78 0
-10671 78 0
-10671 -10655 0
10671 -78 10655 0
-10672 10657 0
-10672 -10671 0
10672 -10657 10671 0
-10673 78 0
-10673 -10657 0
10673 -78 10657 0
-10674 10659 0
-10674 -10673 0
10674 -10659 10673 0
-10675 78 0
-10675 -10659 0
10675 -78 10659 0
-10676 10661 0
-10676 -10675 0
10676 -10661 10675 0
-10677 78 0
-10677 -10661 0
10677 -78 10661 0
-10678 10663 0
-10678 -10677 0
10678 -10663 10677 0
-10679 78 0
-10679 -10663 0
10679 -78 10663 0
-10680 10665 0
-10680 -10679 0
10680 -10665 10679 0
-10681 78 0
-10681 -10665 0
10681 -78 10665 0
-10682 10667 0
-10682 -10681 0
10682 -10667 10681 0
-10683 78 0
-10683 -10667 0
10683 -78 10667 0
-10684 10669 0
-10684 -10683 0
10684 -10669 10683 0
-10685 10670 0
-10685 -79 0
10685 -10670 79 0
-10686 79 0
-10686 -10670 0
10686 -79 10670 0
-10687 10672 0
-10687 -10686 0
10687 -10672 10686 0
-10688 79 0
-10688 -10672 0
10688 -79 10672 0
-10689 10674 0
-10689 -10688 0
10689 -10674 10688 0
-10690 79 0
-10690 -10674 0
10690 -79 10674 0
-10691 10676 0
-10691 -10690 0
10691 -10676 10690 0
-10692 79 0
-10692 -10676 0
10692 -79 10676 0
-10693 10678 0
-10693 -10692 0
10693 -10678 10692 0
-10694 79 0
-10694 -10678 0
10694 -79 10678 0
-10695 10680 0
-10695 -10694 0
10695 -10680 10694 0
-10696 79 0
-10696 -10680 0
10696 -79 10680 0
-10697 10682 0
-10697 -10696 0
10697 -10682 10696 0
-10698 79 0
-10698 -10682 0
10698 -79 10682 0
-10699 10684 0
-10699 -10698 0
10699 -10684 10698 0
-10700 10685 0
-10700 -80 0
10700 -10685 80 0
-10701 80 0
-10701 -10685 0
10701 -80 10685 0
-10702 10687 0
-10702 -10701 0
10702 -10687 10701 0
-10703 80 0
-10703 -10687 0
10703 -80 10687 0
-10704 10689 0
-10704 -10703 0
10704 -10689 10703 0
-10705 80 0
-10705 -10689 0
10705 -80 10689 0
-10706 10691 0
-10706 -10705 0
10706 -10691 10705 0
-10707 80 0
-10707 -10691 0
10707 -80 10691 0
-10708 10693 0
-10708 -10707 0
10708 -10693 10707 0
-10709 80 0
-10709 -10693 0
10709 -80 10693 0
-10710 10695 0
-10710 -10709 0
10710 -10695 10709 0
-10711 80 0
-10711 -10695 0
10711 -80 10695 0
-10712 10697 0
-10712 -10711 0
10712 -10697 10711 0
-10713 80 0
-10713 -10697 0
10713 -80 10697 0
-10714 10699 0
-10714 -10713 0
10714 -10699 10713 0
-10715 10700 0
-10715 -81 0
10715 -10700 81 0
-10716 81 0
-10716 -10700 0
10716 -81 10700 0
-10717 10702 0
-10717 -10716 0
10717 -10702 10716 0
-10718 81 0
-10718 -10702 0
10718 -81 10702 0
-10719 10704 0
-10719 -10718 0
10719 -10704 10718 0
-10720 81 0
-10720 -10704 0
10720 -81 10704 0
-10721 10706 0
-10721 -10720 0
10721 -10706 10720 0
-10722 81 0
-10722 -10706 0
10722 -81 10706 0
-10723 10708 0
-10723 -10722 0
10723 -10708 10722 0
-10724 81 0
-10724 -10708 0
10724 -81 10708 0
-10725 10710 0
-10725 -10724 0
10725 -10710 10724 0
-10726 81 0
-10726 -10710 0
10726 -81 10710 0
-10727 10712 0
-10727 -10726 0
10727 -10712 10726 0
-10728 81 0
-10728 -10712 0
10728 -81 10712 0
-10729 10714 0
-10729 -10728 0
10729 -10714 10728 0
-10730 10715 0
-10730 -82 0
10730 -10715 82 0
-10731 82 0
-10731 -10715 0
10731 -82 10715 0
-10732 10717 0
-10732 -10731 0
10732 -10717 10731 0
-10733 82 0
-10733 -10717 0
10733 -82 10717 0
-10734 10719 0
-10734 -10733 0
10734 -10719 10733 0
-10735 82 0
-10735 -10719 0
10735 -82 10719 0
-10736 10721 0
-10736 -10735 0
10736 -10721 10735 0
-10737 82 0
-10737 -10721 0
10737 -82 10721 0
-10738 10723 0
-10738 -10737 0
10738 -10723 10737 0
-10739 82 0
-10739 -10723 0
10739 -82 10723 0
-10740 10725 0
-10740 -10739 0
10740 -10725 10739 0
-10741 82 0
-10741 -10725 0
10741 -82 10725 0
-10742 10727 0
-10742 -10741 0
10742 -10727 10741 0
-10743 82 0
-10743 -10727 0
10743 -82 10727 0
-10744 10729 0
-10744 -10743 0
10744 -10729 10743 0
-10745 10730 0
-10745 -83 0
10745 -10730 83 0
-10746 83 0
-10746 -10730 0
10746 -83 10730 0
-10747 10732 0
-10747 -10746 0
10747 -10732 10746 0
-10748 83 0
-10748 -10732 0
10748 -83 10732 0
-10749 10734 0
-10749 -10748 0
10749 -10734 10748 0
-10750 83 0
-10750 -10734 0
10750 -83 10734 0
-10751 10736 0
-10751 -10750 0
10751 -10736 10750 0
-10752 83 0
-10752 -10736 0
10752 -83 10736 0
-10753 10738 0
-10753 -10752 0
10753 -10738 10752 0
-10754 83 0
-10754 -10738 0
10754 -83 10738 0
-10755 10740 0
-10755 -10754 0
10755 -10740 10754 0
-10756 83 0
-10756 -10740 0
10756 -83 10740 0
-10757 10742 0
-10757 -10756 0
10757 -10742 10756 0
-10758 83 0
-10758 -10742 0
10758 -83 10742 0
-10759 10744 0
-10759 -10758 0
10759 -10744 10758 0
-10760 10745 0
-10760 -84 0
10760 -10745 84 0
-10761 84 0
-10761 -10745 0
10761 -84 10745 0
-10762 10747 0
-10762 -10761 0
10762 -10747 10761 0
-10763 84 0
-10763 -10747 0
10763 -84 10747 0
-10764 10749 0
-10764 -10763 0
10764 -10749 10763 0
-10765 84 0
-10765 -10749 0
10765 -84 10749 0
-10766 10751 0
-10766 -10765 0
10766 -10751 10765 0
-10767 84 0
-10767 -10751 0
10767 -84 10751 0
-10768 10753 0
-10768 -10767 0
10768 -10753 10767 0
-10769 84 0
-10769 -10753 0
10769 -84 10753 0
-10770 10755 0
-10770 -10769 0
10770 -10755 10769 0
-10771 84 0
-10771 -10755 0
10771 -84 10755 0
-10772 10757 0
-10772 -10771 0
10772 -10757 10771 0
-10773 84 0
-10773 -10757 0
10773 -84 10757 0
-10774 10759 0
-10774 -10773 0
10774 -10759 10773 0
-10775 10760 0
-10775 -85 0
10775 -10760 85 0
-10776 85 0
-10776 -10760 0
10776 -85 10760 0
-10777 10762 0
-10777 -10776 0
10777 -10762 10776 0
-10778 85 0
-10778 -10762 0
10778 -85 10762 0
-10779 10764 0
-10779 -10778 0
10779 -10764 10778 0
-10780 85 0
-10780 -10764 0
10780 -85 10764 0
-10781 10766 0
-10781 -10780 0
10781 -10766 10780 0
-10782 85 0
-10782 -10766 0
10782 -85 10766 0
-10783 10768 0
-10783 -10782 0
10783 -10768 10782 0
-10784 85 0
-10784 -10768 0
10784 -85 10768 0
-10785 10770 0
-10785 -10784 0
10785 -10770 10784 0
-10786 85 0
-10786 -10770 0
10786 -85 10770 0
-10787 10772 0
-10787 -10786 0
10787 -10772 10786 0
-10788 85 0
-10788 -10772 0
10788 -85 10772 0
-10789 10774 0
-10789 -10788 0
10789 -10774 10788 0
-10790 10775 0
-10790 -85 0
10790 -10775 85 0
-10791 85 0
-10791 -10775 0
10791 -85 10775 0
-10792 10777 0
-10792 -10791 0
10792 -10777 10791 0
-10793 85 0
-10793 -10777 0
10793 -85 10777 0
-10794 10779 0
-10794 -10793 0
10794 -10779 10793 0
-10795 85 0
-10795 -10779 0
10795 -85 10779 0
-10796 10781 0
-10796 -10795 0
10796 -10781 10795 0
-10797 85 0
-10797 -10781 0
10797 -85 10781 0
-10798 10783 0
-10798 -10797 0
10798 -10783 10797 0
-10799 85 0
-10799 -10783 0
10799 -85 10783 0
-10800 10785 0
-10800 -10799 0
10800 -10785 10799 0
-10801 85 0
-10801 -10785 0
10801 -85 10785 0
-10802 10787 0
-10802 -10801 0
10802 -10787 10801 0
-10803 85 0
-10803 -10787 0
10803 -85 10787 0
-10804 10789 0
-10804 -10803 0
10804 -10789 10803 0
-10805 10790 0
-10805 -86 0
10805 -10790 86 0
-10806 86 0
-10806 -10790 0
10806 -86 10790 0
-10807 10792 0
-10807 -10806 0
10807 -10792 10806 0
-10808 86 0
-10808 -10792 0
10808 -86 10792 0
-10809 10794 0
-10809 -10808 0
10809 -10794 10808 0
-10810 86 0
-10810 -10794 0
10810 -86 10794 0
-10811 10796 0
-10811 -10810 0
10811 -10796 10810 0
-10812 86 0
-10812 -10796 0
10812 -86 10796 0
-10813 10798 0
-10813 -10812 0
10813 -10798 10812 0
-10814 86 0
-10814 -10798 0
10814 -86 10798 0
-10815 10800 0
-10815 -10814 0
10815 -10800 10814 0
-10816 86 0
-10816 -10800 0
10816 -86 10800 0
-10817 10802 0
-10817 -10816 0
10817 -10802 10816 0
-10818 86 0
-10818 -10802 0
10818 -86 10802 0
-10819 10804 0
-10819 -10818 0
10819 -10804 10818 0
-10820 10805 0
-10820 -86 0
10820 -10805 86 0
-10821 86 0
-10821 -10805 0
10821 -86 10805 0
-10822 10807 0
-10822 -10821 0
10822 -10807 10821 0
-10823 86 0
-10823 -10807 0
10823 -86 10807 0
-10824 10809 0
-10824 -10823 0
10824 -10809 10823 0
-10825 86 0
-10825 -10809 0
10825 -86 10809 0
-10826 10811 0
-10826 -10825 0
10826 -10811 10825 0
-10827 86 0
-10827 -10811 0
10827 -86 10811 0
-10828 10813 0
-10828 -10827 0
10828 -10813 10827 0
-10829 86 0
-10829 -10813 0
10829 -86 10813 0
-10830 10815 0
-10830 -10829 0
10830 -10815 10829 0
-10831 86 0
-10831 -10815 0
10831 -86 10815 0
-10832 10817 0
-10832 -10831 0
10832 -10817 10831 0
-10833 86 0
-10833 -10817 0
10833 -86 10817 0
-10834 10819 0
-10834 -10833 0
10834 -10819 10833 0
-10835 10820 0
-10835 -87 0
10835 -10820 87 0
-10836 87 0
-10836 -10820 0
10836 -87 10820 0
-10837 10822 0
-10837 -10836 0
10837 -10822 10836 0
-10838 87 0
-10838 -10822 0
10838 -87 10822 0
-10839 10824 0
-10839 -10838 0
10839 -10824 10838 0
-10840 87 0
-10840 -10824 0
10840 -87 10824 0
-10841 10826 0
-10841 -10840 0
10841 -10826 10840 0
-10842 87 0
-10842 -10826 0
10842 -87 10826 0
-10843 10828 0
-10843 -10842 0
10843 -10828 10842 0
-10844 87 0
-10844 -10828 0
10844 -87 10828 0
-10845 10830 0
-10845 -10844 0
10845 -10830 10844 0
-10846 87 0
-10846 -10830 0
10846 -87 10830 0
-10847 10832 0
-10847 -10846 0
10847 -10832 10846 0
-10848 87 0
-10848 -10832 0
10848 -87 10832 0
-10849 10834 0
-10849 -10848 0
10849 -10834 10848 0
-10850 10835 0
-10850 -87 0
10850 -10835 87 0
-10851 87 0
-10851 -10835 0
10851 -87 10835 0
-10852 10837 0
-10852 -10851 0
10852 -10837 10851 0
-10853 87 0
-10853 -10837 0
10853 -87 10837 0
-10854 10839 0
-10854 -10853 0
10854 -10839 10853 0
-10855 87 0
-10855 -10839 0
10855 -87 10839 0
-10856 10841 0
-10856 -10855 0
10856 -10841 10855 0
-10857 87 0
-10857 -10841 0
10857 -87 10841 0
-10858 10843 0
-10858 -10857 0
10858 -10843 10857 0
-10859 87 0
-10859 -10843 0
10859 -87 10843 0
-10860 10845 0
-10860 -10859 0
10860 -10845 10859 0
-10861 87 0
-10861 -10845 0
10861 -87 10845 0
-10862 10847 0
-10862 -10861 0
10862 -10847 10861 0
-10863 87 0
-10863 -10847 0
10863 -87 10847 0
-10864 10849 0
-10864 -10863 0
10864 -10849 10863 0
-10865 10850 0
-10865 -88 0
10865 -10850 88 0
-10866 88 0
-10866 -10850 0
10866 -88 10850 0
-10867 10852 0
-10867 -10866 0
10867 -10852 10866 0
-10868 88 0
-10868 -10852 0
10868 -88 10852 0
-10869 10854 0
-10869 -10868 0
10869 -10854 10868 0
-10870 88 0
-10870 -10854 0
10870 -88 10854 0
-10871 10856 0
-10871 -10870 0
10871 -10856 10870 0
-10872 88 0
-10872 -10856 0
10872 -88 10856 0
-10873 10858 0
-10873 -10872 0
10873 -10858 10872 0
-10874 88 0
-10874 -10858 0
10874 -88 10858 0
-10875 10860 0
-10875 -10874 0
10875 -10860 10874 0
-10876 88 0
-10876 -10860 0
10876 -88 10860 0
-10877 10862 0
-10877 -10876 0
10877 -10862 10876 0
-10878 88 0
-10878 -10862 0
10878 -88 10862 0
-10879 10864 0
-10879 -10878 0
10879 -10864 10878 0
-10880 10865 0
-10880 -88 0
10880 -10865 88 0
-10881 88 0
-10881 -10865 0
10881 -88 10865 0
-10882 10867 0
-10882 -10881 0
10882 -10867 10881 0
-10883 88 0
-10883 -10867 0
10883 -88 10867 0
-10884 10869 0
-10884 -10883 0
10884 -10869 10883 0
-10885 88 0
-10885 -10869 0
10885 -88 10869 0
-10886 10871 0
-10886 -10885 0
10886 -10871 10885 0
-10887 88 0
-10887 -10871 0
10887 -88 10871 0
-10888 10873 0
-10888 -10887 0
10888 -10873 10887 0
-10889 88 0
-10889 -10873 0
10889 -88 10873 0
-10890 10875 0
-10890 -10889 0
10890 -10875 10889 0
-10891 88 0
-10891 -10875 0
10891 -88 10875 0
-10892 10877 0
-10892 -10891 0
10892 -10877 10891 0
-10893 88 0
-10893 -10877 0
10893 -88 10877 0
-10894 10879 0
-10894 -10893 0
10894 -10879 10893 0
-10895 10880 0
-10895 -89 0
10895 -10880 89 0
-10896 89 0
-10896 -10880 0
10896 -89 10880 0
-10897 10882 0
-10897 -10896 0
10897 -10882 10896 0
-10898 89 0
-10898 -10882 0
10898 -89 10882 0
-10899 10884 0
-10899 -10898 0
10899 -10884 10898 0
-10900 89 0
-10900 -10884 0
10900 -89 10884 0
-10901 10886 0
-10901 -10900 0
10901 -10886 10900 0
-10902 89 0
-10902 -10886 0
10902 -89 10886 0
-10903 10888 0
-10903 -10902 0
10903 -10888 10902 0
-10904 89 0
-10904 -10888 0
10904 -89 10888 0
-10905 10890 0
-10905 -10904 0
10905 -10890 10904 0
-10906 89 0
-10906 -10890 0
10906 -89 10890 0
-10907 10892 0
-10907 -10906 0
10907 -10892 10906 0
-10908 89 0
-10908 -10892 0
10908 -89 10892 0
-10909 10894 0
-10909 -10908 0
10909 -10894 10908 0
-10910 10895 0
-10910 -89 0
10910 -10895 89 0
-10911 89 0
-10911 -10895 0
10911 -89 10895 0
-10912 10897 0
-10912 -10911 0
10912 -10897 10911 0
-10913 89 0
-10913 -10897 0
10913 -89 10897 0
-10914 10899 0
-10914 -10913 0
10914 -10899 10913 0
-10915 89 0
-10915 -10899 0
10915 -89 10899 0
-10916 10901 0
-10916 -10915 0
10916 -10901 10915 0
-10917 89 0
-10917 -10901 0
10917 -89 10901 0
-10918 10903 0
-10918 -10917 0
10918 -10903 10917 0
-10919 89 0
-10919 -10903 0
10919 -89 10903 0
-10920 10905 0
-10920 -10919 0
10920 -10905 10919 0
-10921 89 0
-10921 -10905 0
10921 -89 10905 0
-10922 10907 0
-10922 -10921 0
10922 -10907 10921 0
-10923 89 0
-10923 -10907 0
10923 -89 10907 0
-10924 10909 0
-10924 -10923 0
10924 -10909 10923 0
-10925 10910 0
-10925 -90 0
10925 -10910 90 0
-10926 90 0
-10926 -10910 0
10926 -90 10910 0
-10927 10912 0
-10927 -10926 0
10927 -10912 10926 0
-10928 90 0
-10928 -10912 0
10928 -90 10912 0
-10929 10914 0
-10929 -10928 0
10929 -10914 10928 0
-10930 90 0
-10930 -10914 0
10930 -90 10914 0
-10931 10916 0
-10931 -10930 0
10931 -10916 10930 0
-10932 90 0
-10932 -10916 0
10932 -90 10916 0
-10933 10918 0
-10933 -10932 0
10933 -10918 10932 0
-10934 90 0
-10934 -10918 0
10934 -90 10918 0
-10935 10920 0
-10935 -10934 0
10935 -10920 10934 0
-10936 90 0
-10936 -10920 0
10936 -90 10920 0
-10937 10922 0
-10937 -10936 0
10937 -10922 10936 0
-10938 90 0
-10938 -10922 0
10938 -90 10922 0
-10939 10924 0
-10939 -10938 0
10939 -10924 10938 0
-10940 10925 0
-10940 -90 0
10940 -10925 90 0
-10941 90 0
-10941 -10925 0
10941 -90 10925 0
-10942 10927 0
-10942 -10941 0
10942 -10927 10941 0
-10943 90 0
-10943 -10927 0
10943 -90 10927 0
-10944 10929 0
-10944 -10943 0
10944 -10929 10943 0
-10945 90 0
-10945 -10929 0
10945 -90 10929 0
-10946 10931 0
-10946 -10945 0
10946 -10931 10945 0
-10947 90 0
-10947 -10931 0
10947 -90 10931 0
-10948 10933 0
-10948 -10947 0
10948 -10933 10947 0
-10949 90 0
-10949 -10933 0
10949 -90 10933 0
-10950 10935 0
-10950 -10949 0
10950 -10935 10949 0
-10951 90 0
-10951 -10935 0
10951 -90 10935 0
-10952 10937 0
-10952 -10951 0
10952 -10937 10951 0
-10953 90 0
-10953 -10937 0
10953 -90 10937 0
-10954 10939 0
-10954 -10953 0
10954 -10939 10953 0
-10955 10940 0
-10955 -91 0
10955 -10940 91 0
-10956 91 0
-10956 -10940 0
10956 -91 10940 0
-10957 10942 0
-10957 -10956 0
10957 -10942 10956 0
-10958 91 0
-10958 -10942 0
10958 -91 10942 0
-10959 10944 0
-10959 -10958 0
10959 -10944 10958 0
-10960 91 0
-10960 -10944 0
10960 -91 10944 0
-10961 10946 0
-10961 -10960 0
10961 -10946 10960 0
-10962 91 0
-10962 -10946 0
10962 -91 10946 0
-10963 10948 0
-10963 -10962 0
10963 -10948 10962 0
-10964 91 0
-10964 -10948 0
10964 -91 10948 0
-10965 10950 0
-10965 -10964 0
10965 -10950 10964 0
-10966 91 0
-10966 -10950 0
10966 -91 10950 0
-10967 10952 0
-10967 -10966 0
10967 -10952 10966 0
-10968 91 0
-10968 -10952 0
10968 -91 10952 0
-10969 10954 0
-10969 -10968 0
10969 -10954 10968 0
-10970 10955 0
-10970 -91 0
10970 -10955 91 0
-10971 91 0
-10971 -10955 0
10971 -91 10955 0
-10972 10957 0
-10972 -10971 0
10972 -10957 10971 0
-10973 91 0
-10973 -10957 0
10973 -91 10957 0
-10974 10959 0
-10974 -10973 0
10974 -10959 10973 0
-10975 91 0
-10975 -10959 0
10975 -91 10959 0
-10976 10961 0
-10976 -10975 0
10976 -10961 10975 0
-10977 91 0
-10977 -10961 0
10977 -91 10961 0
-10978 10963 0
-10978 -10977 0
10978 -10963 10977 0
-10979 91 0
-10979 -10963 0
10979 -91 10963 0
-10980 10965 0
-10980 -10979 0
10980 -10965 10979 0
-10981 91 0
-10981 -10965 0
10981 -91 10965 0
-10982 10967 0
-10982 -10981 0
10982 -10967 10981 0
-10983 91 0
-10983 -10967 0
10983 -91 10967 0
-10984 10969 0
-10984 -10983 0
10984 -10969 10983 0
-10985 10970 0
-10985 -92 0
10985 -10970 92 0
-10986 92 0
-10986 -10970 0
10986 -92 10970 0
-10987 10972 0
-10987 -10986 0
10987 -10972 10986 0
-10988 92 0
-10988 -10972 0
10988 -92 10972 0
-10989 10974 0
-10989 -10988 0
10989 -10974 10988 0
-10990 92 0
-10990 -10974 0
10990 -92 10974 0
-10991 10976 0
-10991 -10990 0
10991 -10976 10990 0
-10992 92 0
-10992 -10976 0
10992 -92 10976 0
-10993 10978 0
-10993 -10992 0
10993 -10978 10992 0
-10994 92 0
-10994 -10978 0
10994 -92 10978 0
-10995 10980 0
-10995 -10994 0
10995 -10980 10994 0
-10996 92 0
-10996 -10980 0
10996 -92 10980 0
-10997 10982 0
-10997 -10996 0
10997 -10982 10996 0
-10998 92 0
-10998 -10982 0
10998 -92 10982 0
-10999 10984 0
-10999 -10998 0
10999 -10984 10998 0
-11000 10985 0
-11000 -92 0
11000 -10985 92 0
-11001 92 0
-11001 -10985 0
11001 -92 10985 0
-11002 10987 0
-11002 -11001 0
11002 -10987 11001 0
-11003 92 0
-11003 -10987 0
11003 -92 10987 0
-11004 10989 0
-11004 -11003 0
11004 -10989 11003 0
-11005 92 0
-11005 -10989 0
11005 -92 10989 0
-11006 10991 0
-11006 -11005 0
11006 -10991 11005 0
-11007 92 0
-11007 -10991 0
11007 -92 10991 0
-11008 10993 0
-11008 -11007 0
11008 -10993 11007 0
-11009 92 0
-11009 -10993 0
11009 -92 10993 0
-11010 10995 0
-11010 -11009 0
11010 -10995 11009 0
-11011 92 0
-11011 -10995 0
11011 -92 10995 0
-11012 10997 0
-11012 -11011 0
11012 -10997 11011 0
-11013 92 0
-11013 -10997 0
11013 -92 10997 0
-11014 10999 0
-11014 -11013 0
11014 -10999 11013 0
-11015 11000 0
-11015 -93 0
11015 -11000 93 0
-11016 93 0
-11016 -11000 0
11016 -93 11000 0
-11017 11002 0
-11017 -11016 0
11017 -11002 11016 0
-11018 93 0
-11018 -11002 0
11018 -93 11002 0
-11019 11004 0
-11019 -11018 0
11019 -11004 11018 0
-11020 93 0
-11020 -11004 0
11020 -93 11004 0
-11021 11006 0
-11021 -11020 0
11021 -11006 11020 0
-11022 93 0
-11022 -11006 0
11022 -93 11006 0
-11023 11008 0
-11023 -11022 0
11023 -11008 11022 0
-11024 93 0
-11024 -11008 0
11024 -93 11008 0
-11025 11010 0
-11025 -11024 0
11025 -11010 11024 0
-11026 93 0
-11026 -11010 0
11026 -93 11010 0
-11027 11012 0
-11027 -11026 0
11027 -11012 11026 0
-11028 93 0
-11028 -11012 0
11028 -93 11012 0
-11029 11014 0
-11029 -11028 0
11029 -11014 11028 0
-11030 11015 0
-11030 -93 0
11030 -11015 93 0
-11031 93 0
-11031 -11015 0
11031 -93 11015 0
-11032 11017 0
-11032 -11031 0
11032 -11017 11031 0
-11033 93 0
-11033 -11017 0
11033 -93 11017 0
-11034 11019 0
-11034 -11033 0
11034 -11019 11033 0
-11035 93 0
-11035 -11019 0
11035 -93 11019 0
-11036 11021 0
-11036 -11035 0
11036 -11021 11035 0
-11037 93 0
-11037 -11021 0
11037 -93 11021 0
-11038 11023 0
-11038 -11037 0
11038 -11023 11037 0
-11039 93 0
-11039 -11023 0
11039 -93 11023 0
-11040 11025 0
-11040 -11039 0
11040 -11025 11039 0
-11041 93 0
-11041 -11025 0
11041 -93 11025 0
-11042 11027 0
-11042 -11041 0
11042 -11027 11041 0
-11043 93 0
-11043 -11027 0
11043 -93 11027 0
-11044 11029 0
-11044 -11043 0
11044 -11029 11043 0
-11045 11030 0
-11045 -94 0
11045 -11030 94 0
-11046 94 0
-11046 -11030 0
11046 -94 11030 0
-11047 11032 0
-11047 -11046 0
11047 -11032 11046 0
-11048 94 0
-11048 -11032 0
11048 -94 11032 0
-11049 11034 0
-11049 -11048 0
11049 -11034 11048 0
-11050 94 0
-11050 -11034 0
11050 -94 11034 0
-11051 11036 0
-11051 -11050 0
11051 -11036 11050 0
-11052 94 0
-11052 -11036 0
11052 -94 11036 0
-11053 11038 0
-11053 -11052 0
11053 -11038 11052 0
-11054 94 0
-11054 -11038 0
11054 -94 11038 0
-11055 11040 0
-11055 -11054 0
11055 -11040 11054 0
-11056 94 0
-11056 -11040 0
11056 -94 11040 0
-11057 11042 0
-11057 -11056 0
11057 -11042 11056 0
-11058 94 0
-11058 -11042 0
11058 -94 11042 0
-11059 11044 0
-11059 -11058 0
11059 -11044 11058 0
-11060 11045 0
-11060 -94 0
11060 -11045 94 0
-11061 94 0
-11061 -11045 0
11061 -94 11045 0
-11062 11047 0
-11062 -11061 0
11062 -11047 11061 0
-11063 94 0
-11063 -11047 0
11063 -94 11047 0
-11064 11049 0
-11064 -11063 0
11064 -11049 11063 0
-11065 94 0
-11065 -11049 0
11065 -94 11049 0
-11066 11051 0
-11066 -11065 0
11066 -11051 11065 0
-11067 94 0
-11067 -11051 0
11067 -94 11051 0
-11068 11053 0
-11068 -11067 0
11068 -11053 11067 0
-11069 94 0
-11069 -11053 0
11069 -94 11053 0
-11070 11055 0
-11070 -11069 0
11070 -11055 11069 0
-11071 94 0
-11071 -11055 0
11071 -94 11055 0
-11072 11057 0
-11072 -11071 0
11072 -11057 11071 0
-11073 94 0
-11073 -11057 0
11073 -94 11057 0
-11074 11059 0
-11074 -11073 0
11074 -11059 11073 0
-11074 0
