p cnf 4658 16348
-1 9 0
1 -9 0
-3 13 0
3 -13 0
-4 16 0
4 -16 0
-6 34 0
6 -34 0
-7 36 0
7 -36 0
-8 23 0
8 -23 0
-9 1 0
9 -1 0
-10 24 0
10 -24 0
-13 3 0
13 -3 0
-14 41 0
14 -41 0
-15 29 0
15 -29 0
-16 4 0
16 -4 0
-17 47 0
17 -47 0
-18 19 0
18 -19 0
-19 18 0
19 -18 0
-20 22 0
20 -22 0
-21 45 0
21 -45 0
-22 20 0
22 -20 0
-23 8 0
23 -8 0
-24 10 0
24 -10 0
-25 38 0
25 -38 0
-26 39 0
26 -39 0
-28 30 0
28 -30 0
-29 15 0
29 -15 0
-30 28 0
30 -28 0
-31 44 0
31 -44 0
-32 43 0
32 -43 0
-33 42 0
33 -42 0
-34 6 0
34 -6 0
-35 37 0
35 -37 0
-36 7 0
36 -7 0
-37 35 0
37 -35 0
-38 25 0
38 -25 0
-39 26 0
39 -26 0
-40 46 0
40 -46 0
-41 14 0
41 -14 0
-42 33 0
42 -33 0
-43 32 0
43 -32 0
-44 31 0
44 -31 0
-45 21 0
45 -21 0
-46 40 0
46 -40 0
-47 17 0
47 -17 0
-1 48 0
-48 1 0
-49 0
-49 1 0
-50 0
-50 1 0
-51 0
-51 1 0
-52 0
-52 1 0
-53 0
-53 1 0
-54 0
-54 1 0
-55 0
-55 1 0
-48 56 0
-2 56 0
-56 48 2 0
-49 57 0
-48 -2 57 0
-57 49 48 0
-57 49 2 0
-50 58 0
-49 -2 58 0
-58 50 49 0
-58 50 2 0
-51 59 0
-50 -2 59 0
-59 51 50 0
-59 51 2 0
-52 60 0
-51 -2 60 0
-60 52 51 0
-60 52 2 0
-53 61 0
-52 -2 61 0
-61 53 52 0
-61 53 2 0
-54 62 0
-53 -2 62 0
-62 54 53 0
-62 54 2 0
-55 63 0
-54 -2 63 0
-63 55 54 0
-63 55 2 0
-56 64 0
-3 64 0
-64 56 3 0
-57 65 0
-56 -3 65 0
-65 57 56 0
-65 57 3 0
-58 66 0
-57 -3 66 0
-66 58 57 0
-66 58 3 0
-59 67 0
-58 -3 67 0
-67 59 58 0
-67 59 3 0
-60 68 0
-59 -3 68 0
-68 60 59 0
-68 60 3 0
-61 69 0
-60 -3 69 0
-69 61 60 0
-69 61 3 0
-62 70 0
-61 -3 70 0
-70 62 61 0
-70 62 3 0
-63 71 0
-62 -3 71 0
-71 63 62 0
-71 63 3 0
-64 72 0
-4 72 0
-72 64 4 0
-65 73 0
-64 -4 73 0
-73 65 64 0
-73 65 4 0
-66 74 0
-65 -4 74 0
-74 66 65 0
-74 66 4 0
-67 75 0
-66 -4 75 0
-75 67 66 0
-75 67 4 0
-68 76 0
-67 -4 76 0
-76 68 67 0
-76 68 4 0
-69 77 0
-68 -4 77 0
-77 69 68 0
-77 69 4 0
-70 78 0
-69 -4 78 0
-78 70 69 0
-78 70 4 0
-71 79 0
-70 -4 79 0
-79 71 70 0
-79 71 4 0
-72 80 0
-5 80 0
-80 72 5 0
-73 81 0
-72 -5 81 0
-81 73 72 0
-81 73 5 0
-74 82 0
-73 -5 82 0
-82 74 73 0
-82 74 5 0
-75 83 0
-74 -5 83 0
-83 75 74 0
-83 75 5 0
-76 84 0
-75 -5 84 0
-84 76 75 0
-84 76 5 0
-77 85 0
-76 -5 85 0
-85 77 76 0
-85 77 5 0
-78 86 0
-77 -5 86 0
-86 78 77 0
-86 78 5 0
-79 87 0
-78 -5 87 0
-87 79 78 0
-87 79 5 0
-80 88 0
-6 88 0
-88 80 6 0
-81 89 0
-80 -6 89 0
-89 81 80 0
-89 81 6 0
-82 90 0
-81 -6 90 0
-90 82 81 0
-90 82 6 0
-83 91 0
-82 -6 91 0
-91 83 82 0
-91 83 6 0
-84 92 0
-83 -6 92 0
-92 84 83 0
-92 84 6 0
-85 93 0
-84 -6 93 0
-93 85 84 0
-93 85 6 0
-86 94 0
-85 -6 94 0
-94 86 85 0
-94 86 6 0
-87 95 0
-86 -6 95 0
-95 87 86 0
-95 87 6 0
-88 96 0
-7 96 0
-96 88 7 0
-89 97 0
-88 -7 97 0
-97 89 88 0
-97 89 7 0
-90 98 0
-89 -7 98 0
-98 90 89 0
-98 90 7 0
-91 99 0
-90 -7 99 0
-99 91 90 0
-99 91 7 0
-92 100 0
-91 -7 100 0
-100 92 91 0
-100 92 7 0
-93 101 0
-92 -7 101 0
-101 93 92 0
-101 93 7 0
-94 102 0
-93 -7 102 0
-102 94 93 0
-102 94 7 0
-95 103 0
-94 -7 103 0
-103 95 94 0
-103 95 7 0
-96 104 0
-8 104 0
-104 96 8 0
-97 105 0
-96 -8 105 0
-105 97 96 0
-105 97 8 0
-98 106 0
-97 -8 106 0
-106 98 97 0
-106 98 8 0
-99 107 0
-98 -8 107 0
-107 99 98 0
-107 99 8 0
-100 108 0
-99 -8 108 0
-108 100 99 0
-108 100 8 0
-101 109 0
-100 -8 109 0
-109 101 100 0
-109 101 8 0
-102 110 0
-101 -8 110 0
-110 102 101 0
-110 102 8 0
-103 111 0
-102 -8 111 0
-111 103 102 0
-111 103 8 0
-104 112 0
-9 112 0
-112 104 9 0
-105 113 0
-104 -9 113 0
-113 105 104 0
-113 105 9 0
-106 114 0
-105 -9 114 0
-114 106 105 0
-114 106 9 0
-107 115 0
-106 -9 115 0
-115 107 106 0
-115 107 9 0
-108 116 0
-107 -9 116 0
-116 108 107 0
-116 108 9 0
-109 117 0
-108 -9 117 0
-117 109 108 0
-117 109 9 0
-110 118 0
-109 -9 118 0
-118 110 109 0
-118 110 9 0
-111 119 0
-110 -9 119 0
-119 111 110 0
-119 111 9 0
-112 120 0
-10 120 0
-120 112 10 0
-113 121 0
-112 -10 121 0
-121 113 112 0
-121 113 10 0
-114 122 0
-113 -10 122 0
-122 114 113 0
-122 114 10 0
-115 123 0
-114 -10 123 0
-123 115 114 0
-123 115 10 0
-116 124 0
-115 -10 124 0
-124 116 115 0
-124 116 10 0
-117 125 0
-116 -10 125 0
-125 117 116 0
-125 117 10 0
-118 126 0
-117 -10 126 0
-126 118 117 0
-126 118 10 0
-119 127 0
-118 -10 127 0
-127 119 118 0
-127 119 10 0
-120 128 0
-11 128 0
-128 120 11 0
-121 129 0
-120 -11 129 0
-129 121 120 0
-129 121 11 0
-122 130 0
-121 -11 130 0
-130 122 121 0
-130 122 11 0
-123 131 0
-122 -11 131 0
-131 123 122 0
-131 123 11 0
-124 132 0
-123 -11 132 0
-132 124 123 0
-132 124 11 0
-125 133 0
-124 -11 133 0
-133 125 124 0
-133 125 11 0
-126 134 0
-125 -11 134 0
-134 126 125 0
-134 126 11 0
-127 135 0
-126 -11 135 0
-135 127 126 0
-135 127 11 0
-128 136 0
-12 136 0
-136 128 12 0
-129 137 0
-128 -12 137 0
-137 129 128 0
-137 129 12 0
-130 138 0
-129 -12 138 0
-138 130 129 0
-138 130 12 0
-131 139 0
-130 -12 139 0
-139 131 130 0
-139 131 12 0
-132 140 0
-131 -12 140 0
-140 132 131 0
-140 132 12 0
-133 141 0
-132 -12 141 0
-141 133 132 0
-141 133 12 0
-134 142 0
-133 -12 142 0
-142 134 133 0
-142 134 12 0
-135 143 0
-134 -12 143 0
-143 135 134 0
-143 135 12 0
-136 144 0
-13 144 0
-144 136 13 0
-137 145 0
-136 -13 145 0
-145 137 136 0
-145 137 13 0
-138 146 0
-137 -13 146 0
-146 138 137 0
-146 138 13 0
-139 147 0
-138 -13 147 0
-147 139 138 0
-147 139 13 0
-140 148 0
-139 -13 148 0
-148 140 139 0
-148 140 13 0
-141 149 0
-140 -13 149 0
-149 141 140 0
-149 141 13 0
-142 150 0
-141 -13 150 0
-150 142 141 0
-150 142 13 0
-143 151 0
-142 -13 151 0
-151 143 142 0
-151 143 13 0
-144 152 0
-14 152 0
-152 144 14 0
-145 153 0
-144 -14 153 0
-153 145 144 0
-153 145 14 0
-146 154 0
-145 -14 154 0
-154 146 145 0
-154 146 14 0
-147 155 0
-146 -14 155 0
-155 147 146 0
-155 147 14 0
-148 156 0
-147 -14 156 0
-156 148 147 0
-156 148 14 0
-149 157 0
-148 -14 157 0
-157 149 148 0
-157 149 14 0
-150 158 0
-149 -14 158 0
-158 150 149 0
-158 150 14 0
-151 159 0
-150 -14 159 0
-159 151 150 0
-159 151 14 0
-152 160 0
-15 160 0
-160 152 15 0
-153 161 0
-152 -15 161 0
-161 153 152 0
-161 153 15 0
-154 162 0
-153 -15 162 0
-162 154 153 0
-162 154 15 0
-155 163 0
-154 -15 163 0
-163 155 154 0
-163 155 15 0
-156 164 0
-155 -15 164 0
-164 156 155 0
-164 156 15 0
-157 165 0
-156 -15 165 0
-165 157 156 0
-165 157 15 0
-158 166 0
-157 -15 166 0
-166 158 157 0
-166 158 15 0
-159 167 0
-158 -15 167 0
-167 159 158 0
-167 159 15 0
-160 168 0
-16 168 0
-168 160 16 0
-161 169 0
-160 -16 169 0
-169 161 160 0
-169 161 16 0
-162 170 0
-161 -16 170 0
-170 162 161 0
-170 162 16 0
-163 171 0
-162 -16 171 0
-171 163 162 0
-171 163 16 0
-164 172 0
-163 -16 172 0
-172 164 163 0
-172 164 16 0
-165 173 0
-164 -16 173 0
-173 165 164 0
-173 165 16 0
-166 174 0
-165 -16 174 0
-174 166 165 0
-174 166 16 0
-167 175 0
-166 -16 175 0
-175 167 166 0
-175 167 16 0
-168 176 0
-17 176 0
-176 168 17 0
-169 177 0
-168 -17 177 0
-177 169 168 0
-177 169 17 0
-170 178 0
-169 -17 178 0
-178 170 169 0
-178 170 17 0
-171 179 0
-170 -17 179 0
-179 171 170 0
-179 171 17 0
-172 180 0
-171 -17 180 0
-180 172 171 0
-180 172 17 0
-173 181 0
-172 -17 181 0
-181 173 172 0
-181 173 17 0
-174 182 0
-173 -17 182 0
-182 174 173 0
-182 174 17 0
-175 183 0
-174 -17 183 0
-183 175 174 0
-183 175 17 0
-176 184 0
-18 184 0
-184 176 18 0
-177 185 0
-176 -18 185 0
-185 177 176 0
-185 177 18 0
-178 186 0
-177 -18 186 0
-186 178 177 0
-186 178 18 0
-179 187 0
-178 -18 187 0
-187 179 178 0
-187 179 18 0
-180 188 0
-179 -18 188 0
-188 180 179 0
-188 180 18 0
-181 189 0
-180 -18 189 0
-189 181 180 0
-189 181 18 0
-182 190 0
-181 -18 190 0
-190 182 181 0
-190 182 18 0
-183 191 0
-182 -18 191 0
-191 183 182 0
-191 183 18 0
-184 192 0
-19 192 0
-192 184 19 0
-185 193 0
-184 -19 193 0
-193 185 184 0
-193 185 19 0
-186 194 0
-185 -19 194 0
-194 186 185 0
-194 186 19 0
-187 195 0
-186 -19 195 0
-195 187 186 0
-195 187 19 0
-188 196 0
-187 -19 196 0
-196 188 187 0
-196 188 19 0
-189 197 0
-188 -19 197 0
-197 189 188 0
-197 189 19 0
-190 198 0
-189 -19 198 0
-198 190 189 0
-198 190 19 0
-191 199 0
-190 -19 199 0
-199 191 190 0
-199 191 19 0
-192 200 0
-20 200 0
-200 192 20 0
-193 201 0
-192 -20 201 0
-201 193 192 0
-201 193 20 0
-194 202 0
-193 -20 202 0
-202 194 193 0
-202 194 20 0
-195 203 0
-194 -20 203 0
-203 195 194 0
-203 195 20 0
-196 204 0
-195 -20 204 0
-204 196 195 0
-204 196 20 0
-197 205 0
-196 -20 205 0
-205 197 196 0
-205 197 20 0
-198 206 0
-197 -20 206 0
-206 198 197 0
-206 198 20 0
-199 207 0
-198 -20 207 0
-207 199 198 0
-207 199 20 0
-200 208 0
-21 208 0
-208 200 21 0
-201 209 0
-200 -21 209 0
-209 201 200 0
-209 201 21 0
-202 210 0
-201 -21 210 0
-210 202 201 0
-210 202 21 0
-203 211 0
-202 -21 211 0
-211 203 202 0
-211 203 21 0
-204 212 0
-203 -21 212 0
-212 204 203 0
-212 204 21 0
-205 213 0
-204 -21 213 0
-213 205 204 0
-213 205 21 0
-206 214 0
-205 -21 214 0
-214 206 205 0
-214 206 21 0
-207 215 0
-206 -21 215 0
-215 207 206 0
-215 207 21 0
-208 216 0
-22 216 0
-216 208 22 0
-209 217 0
-208 -22 217 0
-217 209 208 0
-217 209 22 0
-210 218 0
-209 -22 218 0
-218 210 209 0
-218 210 22 0
-211 219 0
-210 -22 219 0
-219 211 210 0
-219 211 22 0
-212 220 0
-211 -22 220 0
-220 212 211 0
-220 212 22 0
-213 221 0
-212 -22 221 0
-221 213 212 0
-221 213 22 0
-214 222 0
-213 -22 222 0
-222 214 213 0
-222 214 22 0
-215 223 0
-214 -22 223 0
-223 215 214 0
-223 215 22 0
-216 224 0
-23 224 0
-224 216 23 0
-217 225 0
-216 -23 225 0
-225 217 216 0
-225 217 23 0
-218 226 0
-217 -23 226 0
-226 218 217 0
-226 218 23 0
-219 227 0
-218 -23 227 0
-227 219 218 0
-227 219 23 0
-220 228 0
-219 -23 228 0
-228 220 219 0
-228 220 23 0
-221 229 0
-220 -23 229 0
-229 221 220 0
-229 221 23 0
-222 230 0
-221 -23 230 0
-230 222 221 0
-230 222 23 0
-223 231 0
-222 -23 231 0
-231 223 222 0
-231 223 23 0
-224 232 0
-24 232 0
-232 224 24 0
-225 233 0
-224 -24 233 0
-233 225 224 0
-233 225 24 0
-226 234 0
-225 -24 234 0
-234 226 225 0
-234 226 24 0
-227 235 0
-226 -24 235 0
-235 227 226 0
-235 227 24 0
-228 236 0
-227 -24 236 0
-236 228 227 0
-236 228 24 0
-229 237 0
-228 -24 237 0
-237 229 228 0
-237 229 24 0
-230 238 0
-229 -24 238 0
-238 230 229 0
-238 230 24 0
-231 239 0
-230 -24 239 0
-239 231 230 0
-239 231 24 0
-232 240 0
-25 240 0
-240 232 25 0
-233 241 0
-232 -25 241 0
-241 233 232 0
-241 233 25 0
-234 242 0
-233 -25 242 0
-242 234 233 0
-242 234 25 0
-235 243 0
-234 -25 243 0
-243 235 234 0
-243 235 25 0
-236 244 0
-235 -25 244 0
-244 236 235 0
-244 236 25 0
-237 245 0
-236 -25 245 0
-245 237 236 0
-245 237 25 0
-238 246 0
-237 -25 246 0
-246 238 237 0
-246 238 25 0
-239 247 0
-238 -25 247 0
-247 239 238 0
-247 239 25 0
-240 248 0
-26 248 0
-248 240 26 0
-241 249 0
-240 -26 249 0
-249 241 240 0
-249 241 26 0
-242 250 0
-241 -26 250 0
-250 242 241 0
-250 242 26 0
-243 251 0
-242 -26 251 0
-251 243 242 0
-251 243 26 0
-244 252 0
-243 -26 252 0
-252 244 243 0
-252 244 26 0
-245 253 0
-244 -26 253 0
-253 245 244 0
-253 245 26 0
-246 254 0
-245 -26 254 0
-254 246 245 0
-254 246 26 0
-247 255 0
-246 -26 255 0
-255 247 246 0
-255 247 26 0
-248 256 0
-27 256 0
-256 248 27 0
-249 257 0
-248 -27 257 0
-257 249 248 0
-257 249 27 0
-250 258 0
-249 -27 258 0
-258 250 249 0
-258 250 27 0
-251 259 0
-250 -27 259 0
-259 251 250 0
-259 251 27 0
-252 260 0
-251 -27 260 0
-260 252 251 0
-260 252 27 0
-253 261 0
-252 -27 261 0
-261 253 252 0
-261 253 27 0
-254 262 0
-253 -27 262 0
-262 254 253 0
-262 254 27 0
-255 263 0
-254 -27 263 0
-263 255 254 0
-263 255 27 0
-256 264 0
-28 264 0
-264 256 28 0
-257 265 0
-256 -28 265 0
-265 257 256 0
-265 257 28 0
-258 266 0
-257 -28 266 0
-266 258 257 0
-266 258 28 0
-259 267 0
-258 -28 267 0
-267 259 258 0
-267 259 28 0
-260 268 0
-259 -28 268 0
-268 260 259 0
-268 260 28 0
-261 269 0
-260 -28 269 0
-269 261 260 0
-269 261 28 0
-262 270 0
-261 -28 270 0
-270 262 261 0
-270 262 28 0
-263 271 0
-262 -28 271 0
-271 263 262 0
-271 263 28 0
-264 272 0
-29 272 0
-272 264 29 0
-265 273 0
-264 -29 273 0
-273 265 264 0
-273 265 29 0
-266 274 0
-265 -29 274 0
-274 266 265 0
-274 266 29 0
-267 275 0
-266 -29 275 0
-275 267 266 0
-275 267 29 0
-268 276 0
-267 -29 276 0
-276 268 267 0
-276 268 29 0
-269 277 0
-268 -29 277 0
-277 269 268 0
-277 269 29 0
-270 278 0
-269 -29 278 0
-278 270 269 0
-278 270 29 0
-271 279 0
-270 -29 279 0
-279 271 270 0
-279 271 29 0
-272 280 0
-30 280 0
-280 272 30 0
-273 281 0
-272 -30 281 0
-281 273 272 0
-281 273 30 0
-274 282 0
-273 -30 282 0
-282 274 273 0
-282 274 30 0
-275 283 0
-274 -30 283 0
-283 275 274 0
-283 275 30 0
-276 284 0
-275 -30 284 0
-284 276 275 0
-284 276 30 0
-277 285 0
-276 -30 285 0
-285 277 276 0
-285 277 30 0
-278 286 0
-277 -30 286 0
-286 278 277 0
-286 278 30 0
-279 287 0
-278 -30 287 0
-287 279 278 0
-287 279 30 0
-280 288 0
-31 288 0
-288 280 31 0
-281 289 0
-280 -31 289 0
-289 281 280 0
-289 281 31 0
-282 290 0
-281 -31 290 0
-290 282 281 0
-290 282 31 0
-283 291 0
-282 -31 291 0
-291 283 282 0
-291 283 31 0
-284 292 0
-283 -31 292 0
-292 284 283 0
-292 284 31 0
-285 293 0
-284 -31 293 0
-293 285 284 0
-293 285 31 0
-286 294 0
-285 -31 294 0
-294 286 285 0
-294 286 31 0
-287 295 0
-286 -31 295 0
-295 287 286 0
-295 287 31 0
-288 296 0
-32 296 0
-296 288 32 0
-289 297 0
-288 -32 297 0
-297 289 288 0
-297 289 32 0
-290 298 0
-289 -32 298 0
-298 290 289 0
-298 290 32 0
-291 299 0
-290 -32 299 0
-299 291 290 0
-299 291 32 0
-292 300 0
-291 -32 300 0
-300 292 291 0
-300 292 32 0
-293 301 0
-292 -32 301 0
-301 293 292 0
-301 293 32 0
-294 302 0
-293 -32 302 0
-302 294 293 0
-302 294 32 0
-295 303 0
-294 -32 303 0
-303 295 294 0
-303 295 32 0
-296 304 0
-33 304 0
-304 296 33 0
-297 305 0
-296 -33 305 0
-305 297 296 0
-305 297 33 0
-298 306 0
-297 -33 306 0
-306 298 297 0
-306 298 33 0
-299 307 0
-298 -33 307 0
-307 299 298 0
-307 299 33 0
-300 308 0
-299 -33 308 0
-308 300 299 0
-308 300 33 0
-301 309 0
-300 -33 309 0
-309 301 300 0
-309 301 33 0
-302 310 0
-301 -33 310 0
-310 302 301 0
-310 302 33 0
-303 311 0
-302 -33 311 0
-311 303 302 0
-311 303 33 0
-304 312 0
-34 312 0
-312 304 34 0
-305 313 0
-304 -34 313 0
-313 305 304 0
-313 305 34 0
-306 314 0
-305 -34 314 0
-314 306 305 0
-314 306 34 0
-307 315 0
-306 -34 315 0
-315 307 306 0
-315 307 34 0
-308 316 0
-307 -34 316 0
-316 308 307 0
-316 308 34 0
-309 317 0
-308 -34 317 0
-317 309 308 0
-317 309 34 0
-310 318 0
-309 -34 318 0
-318 310 309 0
-318 310 34 0
-311 319 0
-310 -34 319 0
-319 311 310 0
-319 311 34 0
-312 320 0
-35 320 0
-320 312 35 0
-313 321 0
-312 -35 321 0
-321 313 312 0
-321 313 35 0
-314 322 0
-313 -35 322 0
-322 314 313 0
-322 314 35 0
-315 323 0
-314 -35 323 0
-323 315 314 0
-323 315 35 0
-316 324 0
-315 -35 324 0
-324 316 315 0
-324 316 35 0
-317 325 0
-316 -35 325 0
-325 317 316 0
-325 317 35 0
-318 326 0
-317 -35 326 0
-326 318 317 0
-326 318 35 0
-319 327 0
-318 -35 327 0
-327 319 318 0
-327 319 35 0
-320 328 0
-36 328 0
-328 320 36 0
-321 329 0
-320 -36 329 0
-329 321 320 0
-329 321 36 0
-322 330 0
-321 -36 330 0
-330 322 321 0
-330 322 36 0
-323 331 0
-322 -36 331 0
-331 323 322 0
-331 323 36 0
-324 332 0
-323 -36 332 0
-332 324 323 0
-332 324 36 0
-325 333 0
-324 -36 333 0
-333 325 324 0
-333 325 36 0
-326 334 0
-325 -36 334 0
-334 326 325 0
-334 326 36 0
-327 335 0
-326 -36 335 0
-335 327 326 0
-335 327 36 0
-328 336 0
-37 336 0
-336 328 37 0
-329 337 0
-328 -37 337 0
-337 329 328 0
-337 329 37 0
-330 338 0
-329 -37 338 0
-338 330 329 0
-338 330 37 0
-331 339 0
-330 -37 339 0
-339 331 330 0
-339 331 37 0
-332 340 0
-331 -37 340 0
-340 332 331 0
-340 332 37 0
-333 341 0
-332 -37 341 0
-341 333 332 0
-341 333 37 0
-334 342 0
-333 -37 342 0
-342 334 333 0
-342 334 37 0
-335 343 0
-334 -37 343 0
-343 335 334 0
-343 335 37 0
-336 344 0
-38 344 0
-344 336 38 0
-337 345 0
-336 -38 345 0
-345 337 336 0
-345 337 38 0
-338 346 0
-337 -38 346 0
-346 338 337 0
-346 338 38 0
-339 347 0
-338 -38 347 0
-347 339 338 0
-347 339 38 0
-340 348 0
-339 -38 348 0
-348 340 339 0
-348 340 38 0
-341 349 0
-340 -38 349 0
-349 341 340 0
-349 341 38 0
-342 350 0
-341 -38 350 0
-350 342 341 0
-350 342 38 0
-343 351 0
-342 -38 351 0
-351 343 342 0
-351 343 38 0
-344 352 0
-39 352 0
-352 344 39 0
-345 353 0
-344 -39 353 0
-353 345 344 0
-353 345 39 0
-346 354 0
-345 -39 354 0
-354 346 345 0
-354 346 39 0
-347 355 0
-346 -39 355 0
-355 347 346 0
-355 347 39 0
-348 356 0
-347 -39 356 0
-356 348 347 0
-356 348 39 0
-349 357 0
-348 -39 357 0
-357 349 348 0
-357 349 39 0
-350 358 0
-349 -39 358 0
-358 350 349 0
-358 350 39 0
-351 359 0
-350 -39 359 0
-359 351 350 0
-359 351 39 0
-352 360 0
-40 360 0
-360 352 40 0
-353 361 0
-352 -40 361 0
-361 353 352 0
-361 353 40 0
-354 362 0
-353 -40 362 0
-362 354 353 0
-362 354 40 0
-355 363 0
-354 -40 363 0
-363 355 354 0
-363 355 40 0
-356 364 0
-355 -40 364 0
-364 356 355 0
-364 356 40 0
-357 365 0
-356 -40 365 0
-365 357 356 0
-365 357 40 0
-358 366 0
-357 -40 366 0
-366 358 357 0
-366 358 40 0
-359 367 0
-358 -40 367 0
-367 359 358 0
-367 359 40 0
-360 368 0
-41 368 0
-368 360 41 0
-361 369 0
-360 -41 369 0
-369 361 360 0
-369 361 41 0
-362 370 0
-361 -41 370 0
-370 362 361 0
-370 362 41 0
-363 371 0
-362 -41 371 0
-371 363 362 0
-371 363 41 0
-364 372 0
-363 -41 372 0
-372 364 363 0
-372 364 41 0
-365 373 0
-364 -41 373 0
-373 365 364 0
-373 365 41 0
-366 374 0
-365 -41 374 0
-374 366 365 0
-374 366 41 0
-367 375 0
-366 -41 375 0
-375 367 366 0
-375 367 41 0
-368 376 0
-42 376 0
-376 368 42 0
-369 377 0
-368 -42 377 0
-377 369 368 0
-377 369 42 0
-370 378 0
-369 -42 378 0
-378 370 369 0
-378 370 42 0
-371 379 0
-370 -42 379 0
-379 371 370 0
-379 371 42 0
-372 380 0
-371 -42 380 0
-380 372 371 0
-380 372 42 0
-373 381 0
-372 -42 381 0
-381 373 372 0
-381 373 42 0
-374 382 0
-373 -42 382 0
-382 374 373 0
-382 374 42 0
-375 383 0
-374 -42 383 0
-383 375 374 0
-383 375 42 0
-376 384 0
-43 384 0
-384 376 43 0
-377 385 0
-376 -43 385 0
-385 377 376 0
-385 377 43 0
-378 386 0
-377 -43 386 0
-386 378 377 0
-386 378 43 0
-379 387 0
-378 -43 387 0
-387 379 378 0
-387 379 43 0
-380 388 0
-379 -43 388 0
-388 380 379 0
-388 380 43 0
-381 389 0
-380 -43 389 0
-389 381 380 0
-389 381 43 0
-382 390 0
-381 -43 390 0
-390 382 381 0
-390 382 43 0
-383 391 0
-382 -43 391 0
-391 383 382 0
-391 383 43 0
-384 392 0
-44 392 0
-392 384 44 0
-385 393 0
-384 -44 393 0
-393 385 384 0
-393 385 44 0
-386 394 0
-385 -44 394 0
-394 386 385 0
-394 386 44 0
-387 395 0
-386 -44 395 0
-395 387 386 0
-395 387 44 0
-388 396 0
-387 -44 396 0
-396 388 387 0
-396 388 44 0
-389 397 0
-388 -44 397 0
-397 389 388 0
-397 389 44 0
-390 398 0
-389 -44 398 0
-398 390 389 0
-398 390 44 0
-391 399 0
-390 -44 399 0
-399 391 390 0
-399 391 44 0
-392 400 0
-45 400 0
-400 392 45 0
-393 401 0
-392 -45 401 0
-401 393 392 0
-401 393 45 0
-394 402 0
-393 -45 402 0
-402 394 393 0
-402 394 45 0
-395 403 0
-394 -45 403 0
-403 395 394 0
-403 395 45 0
-396 404 0
-395 -45 404 0
-404 396 395 0
-404 396 45 0
-397 405 0
-396 -45 405 0
-405 397 396 0
-405 397 45 0
-398 406 0
-397 -45 406 0
-406 398 397 0
-406 398 45 0
-399 407 0
-398 -45 407 0
-407 399 398 0
-407 399 45 0
-400 408 0
-46 408 0
-408 400 46 0
-401 409 0
-400 -46 409 0
-409 401 400 0
-409 401 46 0
-402 410 0
-401 -46 410 0
-410 402 401 0
-410 402 46 0
-403 411 0
-402 -46 411 0
-411 403 402 0
-411 403 46 0
-404 412 0
-403 -46 412 0
-412 404 403 0
-412 404 46 0
-405 413 0
-404 -46 413 0
-413 405 404 0
-413 405 46 0
-406 414 0
-405 -46 414 0
-414 406 405 0
-414 406 46 0
-407 415 0
-406 -46 415 0
-415 407 406 0
-415 407 46 0
-408 416 0
-47 416 0
-416 408 47 0
-409 417 0
-408 -47 417 0
-417 409 408 0
-417 409 47 0
-410 418 0
-409 -47 418 0
-418 410 409 0
-418 410 47 0
-411 419 0
-410 -47 419 0
-419 411 410 0
-419 411 47 0
-412 420 0
-411 -47 420 0
-420 412 411 0
-420 412 47 0
-413 421 0
-412 -47 421 0
-421 413 412 0
-421 413 47 0
-414 422 0
-413 -47 422 0
-422 414 413 0
-422 414 47 0
-415 423 0
-414 -47 423 0
-423 415 414 0
-423 415 47 0
422 0
-423 0
-424 2 0
-424 18 0
424 -2 -18 0
-425 3 0
-425 20 0
425 -3 -20 0
-426 4 0
-426 8 0
426 -4 -8 0
-427 5 0
-427 9 0
427 -5 -9 0
-428 6 0
-428 2 0
428 -6 -2 0
-429 7 0
-429 13 0
429 -7 -13 0
-430 8 0
-430 16 0
430 -8 -16 0
-431 9 0
-431 5 0
431 -9 -5 0
-432 10 0
-432 42 0
432 -10 -42 0
-433 11 0
-433 6 0
433 -11 -6 0
-434 12 0
-434 34 0
434 -12 -34 0
-435 13 0
-435 7 0
435 -13 -7 0
-436 14 0
-436 35 0
436 -14 -35 0
-437 15 0
-437 36 0
437 -15 -36 0
-438 16 0
-438 23 0
438 -16 -23 0
-439 17 0
-439 24 0
439 -17 -24 0
-440 18 0
-440 11 0
440 -18 -11 0
-441 19 0
-441 12 0
441 -19 -12 0
-442 20 0
-442 3 0
442 -20 -3 0
-443 21 0
-443 41 0
443 -21 -41 0
-444 22 0
-444 29 0
444 -22 -29 0
-445 23 0
-445 4 0
445 -23 -4 0
-446 24 0
-446 32 0
446 -24 -32 0
-447 25 0
-447 31 0
447 -25 -31 0
-448 26 0
-448 47 0
448 -26 -47 0
-449 27 0
-449 19 0
449 -27 -19 0
-450 28 0
-450 21 0
450 -28 -21 0
-451 29 0
-451 22 0
451 -29 -22 0
-452 30 0
-452 45 0
452 -30 -45 0
-453 31 0
-453 10 0
453 -31 -10 0
-454 32 0
-454 38 0
454 -32 -38 0
-455 33 0
-455 39 0
455 -33 -39 0
-456 34 0
-456 27 0
456 -34 -27 0
-457 35 0
-457 30 0
457 -35 -30 0
-458 36 0
-458 15 0
458 -36 -15 0
-459 37 0
-459 28 0
459 -37 -28 0
-460 38 0
-460 17 0
460 -38 -17 0
-461 39 0
-461 44 0
461 -39 -44 0
-462 40 0
-462 43 0
462 -40 -43 0
-463 41 0
-463 37 0
463 -41 -37 0
-464 42 0
-464 25 0
464 -42 -25 0
-465 43 0
-465 26 0
465 -43 -26 0
-466 44 0
-466 46 0
466 -44 -46 0
-467 45 0
-467 14 0
467 -45 -14 0
-468 46 0
-468 33 0
468 -46 -33 0
-469 47 0
-469 40 0
469 -47 -40 0
-424 -425 0
-424 470 0
-425 470 0
-470 424 425 0
-470 -426 0
-470 471 0
-426 471 0
-471 470 426 0
-471 -427 0
-471 472 0
-427 472 0
-472 471 427 0
-472 -428 0
-472 473 0
-428 473 0
-473 472 428 0
-473 -429 0
-473 474 0
-429 474 0
-474 473 429 0
-474 -430 0
-474 475 0
-430 475 0
-475 474 430 0
-475 -431 0
-475 476 0
-431 476 0
-476 475 431 0
-476 -432 0
-476 477 0
-432 477 0
-477 476 432 0
-477 -433 0
-477 478 0
-433 478 0
-478 477 433 0
-478 -434 0
-478 479 0
-434 479 0
-479 478 434 0
-479 -435 0
-479 480 0
-435 480 0
-480 479 435 0
-480 -436 0
-480 481 0
-436 481 0
-481 480 436 0
-481 -437 0
-481 482 0
-437 482 0
-482 481 437 0
-482 -438 0
-482 483 0
-438 483 0
-483 482 438 0
-483 -439 0
-483 484 0
-439 484 0
-484 483 439 0
-484 -440 0
-484 485 0
-440 485 0
-485 484 440 0
-485 -441 0
-485 486 0
-441 486 0
-486 485 441 0
-486 -442 0
-486 487 0
-442 487 0
-487 486 442 0
-487 -443 0
-487 488 0
-443 488 0
-488 487 443 0
-488 -444 0
-488 489 0
-444 489 0
-489 488 444 0
-489 -445 0
-489 490 0
-445 490 0
-490 489 445 0
-490 -446 0
-490 491 0
-446 491 0
-491 490 446 0
-491 -447 0
-491 492 0
-447 492 0
-492 491 447 0
-492 -448 0
-492 493 0
-448 493 0
-493 492 448 0
-493 -449 0
-493 494 0
-449 494 0
-494 493 449 0
-494 -450 0
-494 495 0
-450 495 0
-495 494 450 0
-495 -451 0
-495 496 0
-451 496 0
-496 495 451 0
-496 -452 0
-496 497 0
-452 497 0
-497 496 452 0
-497 -453 0
-497 498 0
-453 498 0
-498 497 453 0
-498 -454 0
-498 499 0
-454 499 0
-499 498 454 0
-499 -455 0
-499 500 0
-455 500 0
-500 499 455 0
-500 -456 0
-500 501 0
-456 501 0
-501 500 456 0
-501 -457 0
-501 502 0
-457 502 0
-502 501 457 0
-502 -458 0
-502 503 0
-458 503 0
-503 502 458 0
-503 -459 0
-503 504 0
-459 504 0
-504 503 459 0
-504 -460 0
-504 505 0
-460 505 0
-505 504 460 0
-505 -461 0
-505 506 0
-461 506 0
-506 505 461 0
-506 -462 0
-506 507 0
-462 507 0
-507 506 462 0
-507 -463 0
-507 508 0
-463 508 0
-508 507 463 0
-508 -464 0
-508 509 0
-464 509 0
-509 508 464 0
-509 -465 0
-509 510 0
-465 510 0
-510 509 465 0
-510 -466 0
-510 511 0
-466 511 0
-511 510 466 0
-511 -467 0
-511 512 0
-467 512 0
-512 511 467 0
-512 -468 0
-512 513 0
-468 513 0
-513 512 468 0
-513 -469 0
-513 514 0
-469 514 0
-514 513 469 0
-515 1 0
-515 19 0
515 -1 -19 0
-516 3 0
-516 24 0
516 -3 -24 0
-517 4 0
-517 11 0
517 -4 -11 0
-518 5 0
-518 12 0
518 -5 -12 0
-519 6 0
-519 8 0
519 -6 -8 0
-520 7 0
-520 43 0
520 -7 -43 0
-521 8 0
-521 18 0
521 -8 -18 0
-522 9 0
-522 6 0
522 -9 -6 0
-523 10 0
-523 13 0
523 -10 -13 0
-524 11 0
-524 16 0
524 -11 -16 0
-525 12 0
-525 5 0
525 -12 -5 0
-526 13 0
-526 10 0
526 -13 -10 0
-527 14 0
-527 38 0
527 -14 -38 0
-528 15 0
-528 39 0
528 -15 -39 0
-529 16 0
-529 27 0
529 -16 -27 0
-530 17 0
-530 35 0
530 -17 -35 0
-531 18 0
-531 9 0
531 -18 -9 0
-532 19 0
-532 23 0
532 -19 -23 0
-533 20 0
-533 33 0
533 -20 -33 0
-534 21 0
-534 42 0
534 -21 -42 0
-535 22 0
-535 31 0
535 -22 -31 0
-536 23 0
-536 34 0
536 -23 -34 0
-537 24 0
-537 3 0
537 -24 -3 0
-538 25 0
-538 41 0
538 -25 -41 0
-539 26 0
-539 29 0
539 -26 -29 0
-540 27 0
-540 4 0
540 -27 -4 0
-541 28 0
-541 25 0
541 -28 -25 0
-542 29 0
-542 26 0
542 -29 -26 0
-543 30 0
-543 46 0
543 -30 -46 0
-544 31 0
-544 21 0
544 -31 -21 0
-545 32 0
-545 36 0
545 -32 -36 0
-546 33 0
-546 45 0
546 -33 -45 0
-547 34 0
-547 1 0
547 -34 -1 0
-548 35 0
-548 32 0
548 -35 -32 0
-549 36 0
-549 17 0
549 -36 -17 0
-550 37 0
-550 47 0
550 -37 -47 0
-551 38 0
-551 30 0
551 -38 -30 0
-552 39 0
-552 15 0
552 -39 -15 0
-553 40 0
-553 28 0
553 -40 -28 0
-554 41 0
-554 40 0
554 -41 -40 0
-555 42 0
-555 22 0
555 -42 -22 0
-556 43 0
-556 37 0
556 -43 -37 0
-557 44 0
-557 20 0
557 -44 -20 0
-558 45 0
-558 44 0
558 -45 -44 0
-559 46 0
-559 14 0
559 -46 -14 0
-560 47 0
-560 7 0
560 -47 -7 0
-515 -516 0
-515 561 0
-516 561 0
-561 515 516 0
-561 -517 0
-561 562 0
-517 562 0
-562 561 517 0
-562 -518 0
-562 563 0
-518 563 0
-563 562 518 0
-563 -519 0
-563 564 0
-519 564 0
-564 563 519 0
-564 -520 0
-564 565 0
-520 565 0
-565 564 520 0
-565 -521 0
-565 566 0
-521 566 0
-566 565 521 0
-566 -522 0
-566 567 0
-522 567 0
-567 566 522 0
-567 -523 0
-567 568 0
-523 568 0
-568 567 523 0
-568 -524 0
-568 569 0
-524 569 0
-569 568 524 0
-569 -525 0
-569 570 0
-525 570 0
-570 569 525 0
-570 -526 0
-570 571 0
-526 571 0
-571 570 526 0
-571 -527 0
-571 572 0
-527 572 0
-572 571 527 0
-572 -528 0
-572 573 0
-528 573 0
-573 572 528 0
-573 -529 0
-573 574 0
-529 574 0
-574 573 529 0
-574 -530 0
-574 575 0
-530 575 0
-575 574 530 0
-575 -531 0
-575 576 0
-531 576 0
-576 575 531 0
-576 -532 0
-576 577 0
-532 577 0
-577 576 532 0
-577 -533 0
-577 578 0
-533 578 0
-578 577 533 0
-578 -534 0
-578 579 0
-534 579 0
-579 578 534 0
-579 -535 0
-579 580 0
-535 580 0
-580 579 535 0
-580 -536 0
-580 581 0
-536 581 0
-581 580 536 0
-581 -537 0
-581 582 0
-537 582 0
-582 581 537 0
-582 -538 0
-582 583 0
-538 583 0
-583 582 538 0
-583 -539 0
-583 584 0
-539 584 0
-584 583 539 0
-584 -540 0
-584 585 0
-540 585 0
-585 584 540 0
-585 -541 0
-585 586 0
-541 586 0
-586 585 541 0
-586 -542 0
-586 587 0
-542 587 0
-587 586 542 0
-587 -543 0
-587 588 0
-543 588 0
-588 587 543 0
-588 -544 0
-588 589 0
-544 589 0
-589 588 544 0
-589 -545 0
-589 590 0
-545 590 0
-590 589 545 0
-590 -546 0
-590 591 0
-546 591 0
-591 590 546 0
-591 -547 0
-591 592 0
-547 592 0
-592 591 547 0
-592 -548 0
-592 593 0
-548 593 0
-593 592 548 0
-593 -549 0
-593 594 0
-549 594 0
-594 593 549 0
-594 -550 0
-594 595 0
-550 595 0
-595 594 550 0
-595 -551 0
-595 596 0
-551 596 0
-596 595 551 0
-596 -552 0
-596 597 0
-552 597 0
-597 596 552 0
-597 -553 0
-597 598 0
-553 598 0
-598 597 553 0
-598 -554 0
-598 599 0
-554 599 0
-599 598 554 0
-599 -555 0
-599 600 0
-555 600 0
-600 599 555 0
-600 -556 0
-600 601 0
-556 601 0
-601 600 556 0
-601 -557 0
-601 602 0
-557 602 0
-602 601 557 0
-602 -558 0
-602 603 0
-558 603 0
-603 602 558 0
-603 -559 0
-603 604 0
-559 604 0
-604 603 559 0
-604 -560 0
-604 605 0
-560 605 0
-605 604 560 0
-606 1 0
-606 22 0
606 -1 -22 0
-607 2 0
-607 10 0
607 -2 -10 0
-608 4 0
-608 30 0
608 -4 -30 0
-609 5 0
-609 15 0
609 -5 -15 0
-610 6 0
-610 44 0
610 -6 -44 0
-611 7 0
-611 9 0
611 -7 -9 0
-612 8 0
-612 37 0
612 -8 -37 0
-613 9 0
-613 7 0
613 -9 -7 0
-614 10 0
-614 2 0
614 -10 -2 0
-615 11 0
-615 25 0
615 -11 -25 0
-616 12 0
-616 26 0
616 -12 -26 0
-617 14 0
-617 16 0
617 -14 -16 0
-618 15 0
-618 5 0
618 -15 -5 0
-619 16 0
-619 14 0
619 -16 -14 0
-620 17 0
-620 34 0
620 -17 -34 0
-621 18 0
-621 33 0
621 -18 -33 0
-622 19 0
-622 32 0
622 -19 -32 0
-623 20 0
-623 36 0
623 -20 -36 0
-624 21 0
-624 23 0
624 -21 -23 0
-625 22 0
-625 1 0
625 -22 -1 0
-626 23 0
-626 21 0
626 -23 -21 0
-627 25 0
-627 11 0
627 -25 -11 0
-628 26 0
-628 12 0
628 -26 -12 0
-629 27 0
-629 40 0
629 -27 -40 0
-630 28 0
-630 41 0
630 -28 -41 0
-631 30 0
-631 4 0
631 -30 -4 0
-632 31 0
-632 47 0
632 -31 -47 0
-633 32 0
-633 19 0
633 -32 -19 0
-634 33 0
-634 18 0
634 -33 -18 0
-635 34 0
-635 17 0
635 -34 -17 0
-636 35 0
-636 45 0
636 -35 -45 0
-637 36 0
-637 20 0
637 -36 -20 0
-638 37 0
-638 8 0
638 -37 -8 0
-639 40 0
-639 27 0
639 -40 -27 0
-640 41 0
-640 28 0
640 -41 -28 0
-641 42 0
-641 43 0
641 -42 -43 0
-642 43 0
-642 42 0
642 -43 -42 0
-643 44 0
-643 6 0
643 -44 -6 0
-644 45 0
-644 35 0
644 -45 -35 0
-645 47 0
-645 31 0
645 -47 -31 0
-606 -607 0
-606 646 0
-607 646 0
-646 606 607 0
-646 -608 0
-646 647 0
-608 647 0
-647 646 608 0
-647 -609 0
-647 648 0
-609 648 0
-648 647 609 0
-648 -610 0
-648 649 0
-610 649 0
-649 648 610 0
-649 -611 0
-649 650 0
-611 650 0
-650 649 611 0
-650 -612 0
-650 651 0
-612 651 0
-651 650 612 0
-651 -613 0
-651 652 0
-613 652 0
-652 651 613 0
-652 -614 0
-652 653 0
-614 653 0
-653 652 614 0
-653 -615 0
-653 654 0
-615 654 0
-654 653 615 0
-654 -616 0
-654 655 0
-616 655 0
-655 654 616 0
-655 -13 0
-655 656 0
-13 656 0
-656 655 13 0
-656 -617 0
-656 657 0
-617 657 0
-657 656 617 0
-657 -618 0
-657 658 0
-618 658 0
-658 657 618 0
-658 -619 0
-658 659 0
-619 659 0
-659 658 619 0
-659 -620 0
-659 660 0
-620 660 0
-660 659 620 0
-660 -621 0
-660 661 0
-621 661 0
-661 660 621 0
-661 -622 0
-661 662 0
-622 662 0
-662 661 622 0
-662 -623 0
-662 663 0
-623 663 0
-663 662 623 0
-663 -624 0
-663 664 0
-624 664 0
-664 663 624 0
-664 -625 0
-664 665 0
-625 665 0
-665 664 625 0
-665 -626 0
-665 666 0
-626 666 0
-666 665 626 0
-666 -24 0
-666 667 0
-24 667 0
-667 666 24 0
-667 -627 0
-667 668 0
-627 668 0
-668 667 627 0
-668 -628 0
-668 669 0
-628 669 0
-669 668 628 0
-669 -629 0
-669 670 0
-629 670 0
-670 669 629 0
-670 -630 0
-670 671 0
-630 671 0
-671 670 630 0
-671 -29 0
-671 672 0
-29 672 0
-672 671 29 0
-672 -631 0
-672 673 0
-631 673 0
-673 672 631 0
-673 -632 0
-673 674 0
-632 674 0
-674 673 632 0
-674 -633 0
-674 675 0
-633 675 0
-675 674 633 0
-675 -634 0
-675 676 0
-634 676 0
-676 675 634 0
-676 -635 0
-676 677 0
-635 677 0
-677 676 635 0
-677 -636 0
-677 678 0
-636 678 0
-678 677 636 0
-678 -637 0
-678 679 0
-637 679 0
-679 678 637 0
-679 -638 0
-679 680 0
-638 680 0
-680 679 638 0
-680 -38 0
-680 681 0
-38 681 0
-681 680 38 0
-681 -39 0
-681 682 0
-39 682 0
-682 681 39 0
-682 -639 0
-682 683 0
-639 683 0
-683 682 639 0
-683 -640 0
-683 684 0
-640 684 0
-684 683 640 0
-684 -641 0
-684 685 0
-641 685 0
-685 684 641 0
-685 -642 0
-685 686 0
-642 686 0
-686 685 642 0
-686 -643 0
-686 687 0
-643 687 0
-687 686 643 0
-687 -644 0
-687 688 0
-644 688 0
-688 687 644 0
-688 -46 0
-688 689 0
-46 689 0
-689 688 46 0
-689 -645 0
-689 690 0
-645 690 0
-690 689 645 0
-691 1 0
-691 23 0
691 -1 -23 0
-692 2 0
-692 11 0
692 -2 -11 0
-693 3 0
-693 28 0
693 -3 -28 0
-694 5 0
-694 16 0
694 -5 -16 0
-695 7 0
-695 45 0
695 -7 -45 0
-696 8 0
-696 1 0
696 -8 -1 0
-697 9 0
-697 8 0
697 -9 -8 0
-698 10 0
-698 38 0
698 -10 -38 0
-699 11 0
-699 12 0
699 -11 -12 0
-700 12 0
-700 27 0
700 -12 -27 0
-701 13 0
-701 14 0
701 -13 -14 0
-702 14 0
-702 13 0
702 -14 -13 0
-703 15 0
-703 41 0
703 -15 -41 0
-704 16 0
-704 5 0
704 -16 -5 0
-705 17 0
-705 31 0
705 -17 -31 0
-706 18 0
-706 34 0
706 -18 -34 0
-707 20 0
-707 37 0
707 -20 -37 0
-708 21 0
-708 20 0
708 -21 -20 0
-709 22 0
-709 35 0
709 -22 -35 0
-710 23 0
-710 9 0
710 -23 -9 0
-711 24 0
-711 25 0
711 -24 -25 0
-712 25 0
-712 39 0
712 -25 -39 0
-713 26 0
-713 46 0
713 -26 -46 0
-714 27 0
-714 2 0
714 -27 -2 0
-715 28 0
-715 3 0
715 -28 -3 0
-716 29 0
-716 30 0
716 -29 -30 0
-717 30 0
-717 29 0
717 -30 -29 0
-718 31 0
-718 17 0
718 -31 -17 0
-719 32 0
-719 47 0
719 -32 -47 0
-720 33 0
-720 43 0
720 -33 -43 0
-721 34 0
-721 18 0
721 -34 -18 0
-722 35 0
-722 7 0
722 -35 -7 0
-723 36 0
-723 21 0
723 -36 -21 0
-724 37 0
-724 36 0
724 -37 -36 0
-725 38 0
-725 26 0
725 -38 -26 0
-726 39 0
-726 40 0
726 -39 -40 0
-727 40 0
-727 24 0
727 -40 -24 0
-728 41 0
-728 15 0
728 -41 -15 0
-729 42 0
-729 44 0
729 -42 -44 0
-730 43 0
-730 33 0
730 -43 -33 0
-731 44 0
-731 42 0
731 -44 -42 0
-732 45 0
-732 22 0
732 -45 -22 0
-733 46 0
-733 10 0
733 -46 -10 0
-734 47 0
-734 32 0
734 -47 -32 0
-691 -692 0
-691 735 0
-692 735 0
-735 691 692 0
-735 -693 0
-735 736 0
-693 736 0
-736 735 693 0
-736 -694 0
-736 737 0
-694 737 0
-737 736 694 0
-737 -6 0
-737 738 0
-6 738 0
-738 737 6 0
-738 -695 0
-738 739 0
-695 739 0
-739 738 695 0
-739 -696 0
-739 740 0
-696 740 0
-740 739 696 0
-740 -697 0
-740 741 0
-697 741 0
-741 740 697 0
-741 -698 0
-741 742 0
-698 742 0
-742 741 698 0
-742 -699 0
-742 743 0
-699 743 0
-743 742 699 0
-743 -700 0
-743 744 0
-700 744 0
-744 743 700 0
-744 -701 0
-744 745 0
-701 745 0
-745 744 701 0
-745 -702 0
-745 746 0
-702 746 0
-746 745 702 0
-746 -703 0
-746 747 0
-703 747 0
-747 746 703 0
-747 -704 0
-747 748 0
-704 748 0
-748 747 704 0
-748 -705 0
-748 749 0
-705 749 0
-749 748 705 0
-749 -706 0
-749 750 0
-706 750 0
-750 749 706 0
-750 -19 0
-750 751 0
-19 751 0
-751 750 19 0
-751 -707 0
-751 752 0
-707 752 0
-752 751 707 0
-752 -708 0
-752 753 0
-708 753 0
-753 752 708 0
-753 -709 0
-753 754 0
-709 754 0
-754 753 709 0
-754 -710 0
-754 755 0
-710 755 0
-755 754 710 0
-755 -711 0
-755 756 0
-711 756 0
-756 755 711 0
-756 -712 0
-756 757 0
-712 757 0
-757 756 712 0
-757 -713 0
-757 758 0
-713 758 0
-758 757 713 0
-758 -714 0
-758 759 0
-714 759 0
-759 758 714 0
-759 -715 0
-759 760 0
-715 760 0
-760 759 715 0
-760 -716 0
-760 761 0
-716 761 0
-761 760 716 0
-761 -717 0
-761 762 0
-717 762 0
-762 761 717 0
-762 -718 0
-762 763 0
-718 763 0
-763 762 718 0
-763 -719 0
-763 764 0
-719 764 0
-764 763 719 0
-764 -720 0
-764 765 0
-720 765 0
-765 764 720 0
-765 -721 0
-765 766 0
-721 766 0
-766 765 721 0
-766 -722 0
-766 767 0
-722 767 0
-767 766 722 0
-767 -723 0
-767 768 0
-723 768 0
-768 767 723 0
-768 -724 0
-768 769 0
-724 769 0
-769 768 724 0
-769 -725 0
-769 770 0
-725 770 0
-770 769 725 0
-770 -726 0
-770 771 0
-726 771 0
-771 770 726 0
-771 -727 0
-771 772 0
-727 772 0
-772 771 727 0
-772 -728 0
-772 773 0
-728 773 0
-773 772 728 0
-773 -729 0
-773 774 0
-729 774 0
-774 773 729 0
-774 -730 0
-774 775 0
-730 775 0
-775 774 730 0
-775 -731 0
-775 776 0
-731 776 0
-776 775 731 0
-776 -732 0
-776 777 0
-732 777 0
-777 776 732 0
-777 -733 0
-777 778 0
-733 778 0
-778 777 733 0
-778 -734 0
-778 779 0
-734 779 0
-779 778 734 0
-780 2 0
-780 12 0
780 -2 -12 0
-781 3 0
-781 29 0
781 -3 -29 0
-782 6 0
-782 18 0
782 -6 -18 0
-783 7 0
-783 20 0
783 -7 -20 0
-784 10 0
-784 39 0
784 -10 -39 0
-785 11 0
-785 27 0
785 -11 -27 0
-786 12 0
-786 2 0
786 -12 -2 0
-787 13 0
-787 15 0
787 -13 -15 0
-788 14 0
-788 28 0
788 -14 -28 0
-789 15 0
-789 13 0
789 -15 -13 0
-790 17 0
-790 42 0
790 -17 -42 0
-791 18 0
-791 6 0
791 -18 -6 0
-792 19 0
-792 34 0
792 -19 -34 0
-793 20 0
-793 7 0
793 -20 -7 0
-794 21 0
-794 35 0
794 -21 -35 0
-795 22 0
-795 36 0
795 -22 -36 0
-796 24 0
-796 26 0
796 -24 -26 0
-797 25 0
-797 46 0
797 -25 -46 0
-798 26 0
-798 24 0
798 -26 -24 0
-799 27 0
-799 11 0
799 -27 -11 0
-800 28 0
-800 14 0
800 -28 -14 0
-801 29 0
-801 3 0
801 -29 -3 0
-802 30 0
-802 41 0
802 -30 -41 0
-803 31 0
-803 32 0
803 -31 -32 0
-804 32 0
-804 31 0
804 -32 -31 0
-805 33 0
-805 47 0
805 -33 -47 0
-806 34 0
-806 19 0
806 -34 -19 0
-807 35 0
-807 21 0
807 -35 -21 0
-808 36 0
-808 22 0
808 -36 -22 0
-809 37 0
-809 45 0
809 -37 -45 0
-810 38 0
-810 40 0
810 -38 -40 0
-811 39 0
-811 10 0
811 -39 -10 0
-812 40 0
-812 38 0
812 -40 -38 0
-813 41 0
-813 30 0
813 -41 -30 0
-814 42 0
-814 17 0
814 -42 -17 0
-815 43 0
-815 44 0
815 -43 -44 0
-816 44 0
-816 43 0
816 -44 -43 0
-817 45 0
-817 37 0
817 -45 -37 0
-818 46 0
-818 25 0
818 -46 -25 0
-819 47 0
-819 33 0
819 -47 -33 0
-1 -780 0
-1 820 0
-780 820 0
-820 1 780 0
-820 -781 0
-820 821 0
-781 821 0
-821 820 781 0
-821 -4 0
-821 822 0
-4 822 0
-822 821 4 0
-822 -782 0
-822 823 0
-782 823 0
-823 822 782 0
-823 -783 0
-823 824 0
-783 824 0
-824 823 783 0
-824 -8 0
-824 825 0
-8 825 0
-825 824 8 0
-825 -9 0
-825 826 0
-9 826 0
-826 825 9 0
-826 -784 0
-826 827 0
-784 827 0
-827 826 784 0
-827 -785 0
-827 828 0
-785 828 0
-828 827 785 0
-828 -786 0
-828 829 0
-786 829 0
-829 828 786 0
-829 -787 0
-829 830 0
-787 830 0
-830 829 787 0
-830 -788 0
-830 831 0
-788 831 0
-831 830 788 0
-831 -789 0
-831 832 0
-789 832 0
-832 831 789 0
-832 -16 0
-832 833 0
-16 833 0
-833 832 16 0
-833 -790 0
-833 834 0
-790 834 0
-834 833 790 0
-834 -791 0
-834 835 0
-791 835 0
-835 834 791 0
-835 -792 0
-835 836 0
-792 836 0
-836 835 792 0
-836 -793 0
-836 837 0
-793 837 0
-837 836 793 0
-837 -794 0
-837 838 0
-794 838 0
-838 837 794 0
-838 -795 0
-838 839 0
-795 839 0
-839 838 795 0
-839 -23 0
-839 840 0
-23 840 0
-840 839 23 0
-840 -796 0
-840 841 0
-796 841 0
-841 840 796 0
-841 -797 0
-841 842 0
-797 842 0
-842 841 797 0
-842 -798 0
-842 843 0
-798 843 0
-843 842 798 0
-843 -799 0
-843 844 0
-799 844 0
-844 843 799 0
-844 -800 0
-844 845 0
-800 845 0
-845 844 800 0
-845 -801 0
-845 846 0
-801 846 0
-846 845 801 0
-846 -802 0
-846 847 0
-802 847 0
-847 846 802 0
-847 -803 0
-847 848 0
-803 848 0
-848 847 803 0
-848 -804 0
-848 849 0
-804 849 0
-849 848 804 0
-849 -805 0
-849 850 0
-805 850 0
-850 849 805 0
-850 -806 0
-850 851 0
-806 851 0
-851 850 806 0
-851 -807 0
-851 852 0
-807 852 0
-852 851 807 0
-852 -808 0
-852 853 0
-808 853 0
-853 852 808 0
-853 -809 0
-853 854 0
-809 854 0
-854 853 809 0
-854 -810 0
-854 855 0
-810 855 0
-855 854 810 0
-855 -811 0
-855 856 0
-811 856 0
-856 855 811 0
-856 -812 0
-856 857 0
-812 857 0
-857 856 812 0
-857 -813 0
-857 858 0
-813 858 0
-858 857 813 0
-858 -814 0
-858 859 0
-814 859 0
-859 858 814 0
-859 -815 0
-859 860 0
-815 860 0
-860 859 815 0
-860 -816 0
-860 861 0
-816 861 0
-861 860 816 0
-861 -817 0
-861 862 0
-817 862 0
-862 861 817 0
-862 -818 0
-862 863 0
-818 863 0
-863 862 818 0
-863 -819 0
-863 864 0
-819 864 0
-864 863 819 0
-865 1 0
-865 2 0
865 -1 -2 0
-866 2 0
-866 23 0
866 -2 -23 0
-867 3 0
-867 31 0
867 -3 -31 0
-868 4 0
-868 34 0
868 -4 -34 0
-869 5 0
-869 19 0
869 -5 -19 0
-870 7 0
-870 24 0
870 -7 -24 0
-871 8 0
-871 11 0
871 -8 -11 0
-872 9 0
-872 12 0
872 -9 -12 0
-873 10 0
-873 45 0
873 -10 -45 0
-874 11 0
-874 1 0
874 -11 -1 0
-875 12 0
-875 8 0
875 -12 -8 0
-876 13 0
-876 17 0
876 -13 -17 0
-877 14 0
-877 47 0
877 -14 -47 0
-878 15 0
-878 43 0
878 -15 -43 0
-879 16 0
-879 18 0
879 -16 -18 0
-880 17 0
-880 13 0
880 -17 -13 0
-881 18 0
-881 16 0
881 -18 -16 0
-882 19 0
-882 5 0
882 -19 -5 0
-883 20 0
-883 10 0
883 -20 -10 0
-884 21 0
-884 38 0
884 -21 -38 0
-885 22 0
-885 39 0
885 -22 -39 0
-886 23 0
-886 27 0
886 -23 -27 0
-887 24 0
-887 37 0
887 -24 -37 0
-888 25 0
-888 20 0
888 -25 -20 0
-889 26 0
-889 35 0
889 -26 -35 0
-890 27 0
-890 9 0
890 -27 -9 0
-891 28 0
-891 44 0
891 -28 -44 0
-892 29 0
-892 33 0
892 -29 -33 0
-893 30 0
-893 42 0
893 -30 -42 0
-894 31 0
-894 3 0
894 -31 -3 0
-895 32 0
-895 41 0
895 -32 -41 0
-896 33 0
-896 29 0
896 -33 -29 0
-897 34 0
-897 4 0
897 -34 -4 0
-898 35 0
-898 25 0
898 -35 -25 0
-899 36 0
-899 26 0
899 -36 -26 0
-900 37 0
-900 46 0
900 -37 -46 0
-901 38 0
-901 7 0
901 -38 -7 0
-902 39 0
-902 21 0
902 -39 -21 0
-903 40 0
-903 36 0
903 -40 -36 0
-904 41 0
-904 32 0
904 -41 -32 0
-905 42 0
-905 30 0
905 -42 -30 0
-906 43 0
-906 15 0
906 -43 -15 0
-907 44 0
-907 28 0
907 -44 -28 0
-908 45 0
-908 40 0
908 -45 -40 0
-909 46 0
-909 22 0
909 -46 -22 0
-910 47 0
-910 14 0
910 -47 -14 0
-865 -866 0
-865 911 0
-866 911 0
-911 865 866 0
-911 -867 0
-911 912 0
-867 912 0
-912 911 867 0
-912 -868 0
-912 913 0
-868 913 0
-913 912 868 0
-913 -869 0
-913 914 0
-869 914 0
-914 913 869 0
-914 -870 0
-914 915 0
-870 915 0
-915 914 870 0
-915 -871 0
-915 916 0
-871 916 0
-916 915 871 0
-916 -872 0
-916 917 0
-872 917 0
-917 916 872 0
-917 -873 0
-917 918 0
-873 918 0
-918 917 873 0
-918 -874 0
-918 919 0
-874 919 0
-919 918 874 0
-919 -875 0
-919 920 0
-875 920 0
-920 919 875 0
-920 -876 0
-920 921 0
-876 921 0
-921 920 876 0
-921 -877 0
-921 922 0
-877 922 0
-922 921 877 0
-922 -878 0
-922 923 0
-878 923 0
-923 922 878 0
-923 -879 0
-923 924 0
-879 924 0
-924 923 879 0
-924 -880 0
-924 925 0
-880 925 0
-925 924 880 0
-925 -881 0
-925 926 0
-881 926 0
-926 925 881 0
-926 -882 0
-926 927 0
-882 927 0
-927 926 882 0
-927 -883 0
-927 928 0
-883 928 0
-928 927 883 0
-928 -884 0
-928 929 0
-884 929 0
-929 928 884 0
-929 -885 0
-929 930 0
-885 930 0
-930 929 885 0
-930 -886 0
-930 931 0
-886 931 0
-931 930 886 0
-931 -887 0
-931 932 0
-887 932 0
-932 931 887 0
-932 -888 0
-932 933 0
-888 933 0
-933 932 888 0
-933 -889 0
-933 934 0
-889 934 0
-934 933 889 0
-934 -890 0
-934 935 0
-890 935 0
-935 934 890 0
-935 -891 0
-935 936 0
-891 936 0
-936 935 891 0
-936 -892 0
-936 937 0
-892 937 0
-937 936 892 0
-937 -893 0
-937 938 0
-893 938 0
-938 937 893 0
-938 -894 0
-938 939 0
-894 939 0
-939 938 894 0
-939 -895 0
-939 940 0
-895 940 0
-940 939 895 0
-940 -896 0
-940 941 0
-896 941 0
-941 940 896 0
-941 -897 0
-941 942 0
-897 942 0
-942 941 897 0
-942 -898 0
-942 943 0
-898 943 0
-943 942 898 0
-943 -899 0
-943 944 0
-899 944 0
-944 943 899 0
-944 -900 0
-944 945 0
-900 945 0
-945 944 900 0
-945 -901 0
-945 946 0
-901 946 0
-946 945 901 0
-946 -902 0
-946 947 0
-902 947 0
-947 946 902 0
-947 -903 0
-947 948 0
-903 948 0
-948 947 903 0
-948 -904 0
-948 949 0
-904 949 0
-949 948 904 0
-949 -905 0
-949 950 0
-905 950 0
-950 949 905 0
-950 -906 0
-950 951 0
-906 951 0
-951 950 906 0
-951 -907 0
-951 952 0
-907 952 0
-952 951 907 0
-952 -908 0
-952 953 0
-908 953 0
-953 952 908 0
-953 -909 0
-953 954 0
-909 954 0
-954 953 909 0
-954 -910 0
-954 955 0
-910 955 0
-955 954 910 0
-956 1 0
-956 3 0
956 -1 -3 0
-957 2 0
-957 32 0
957 -2 -32 0
-958 3 0
-958 1 0
958 -3 -1 0
-959 4 0
-959 21 0
959 -4 -21 0
-960 5 0
-960 22 0
960 -5 -22 0
-961 6 0
-961 10 0
961 -6 -10 0
-962 8 0
-962 30 0
962 -8 -30 0
-963 9 0
-963 15 0
963 -9 -15 0
-964 10 0
-964 18 0
964 -10 -18 0
-965 11 0
-965 17 0
965 -11 -17 0
-966 12 0
-966 44 0
966 -12 -44 0
-967 13 0
-967 20 0
967 -13 -20 0
-968 14 0
-968 8 0
968 -14 -8 0
-969 15 0
-969 9 0
969 -15 -9 0
-970 16 0
-970 37 0
970 -16 -37 0
-971 17 0
-971 2 0
971 -17 -2 0
-972 18 0
-972 25 0
972 -18 -25 0
-973 19 0
-973 26 0
973 -19 -26 0
-974 20 0
-974 13 0
974 -20 -13 0
-975 21 0
-975 16 0
975 -21 -16 0
-976 22 0
-976 5 0
976 -22 -5 0
-977 23 0
-977 14 0
977 -23 -14 0
-978 24 0
-978 42 0
978 -24 -42 0
-979 25 0
-979 6 0
979 -25 -6 0
-980 26 0
-980 34 0
980 -26 -34 0
-981 27 0
-981 33 0
981 -27 -33 0
-982 28 0
-982 35 0
982 -28 -35 0
-983 29 0
-983 36 0
983 -29 -36 0
-984 30 0
-984 23 0
984 -30 -23 0
-985 31 0
-985 24 0
985 -31 -24 0
-986 32 0
-986 11 0
986 -32 -11 0
-987 33 0
-987 12 0
987 -33 -12 0
-988 34 0
-988 40 0
988 -34 -40 0
-989 35 0
-989 41 0
989 -35 -41 0
-990 36 0
-990 29 0
990 -36 -29 0
-991 37 0
-991 4 0
991 -37 -4 0
-992 38 0
-992 31 0
992 -38 -31 0
-993 39 0
-993 47 0
993 -39 -47 0
-994 40 0
-994 19 0
994 -40 -19 0
-995 41 0
-995 45 0
995 -41 -45 0
-996 42 0
-996 38 0
996 -42 -38 0
-997 43 0
-997 39 0
997 -43 -39 0
-998 44 0
-998 27 0
998 -44 -27 0
-999 45 0
-999 28 0
999 -45 -28 0
-1000 46 0
-1000 43 0
1000 -46 -43 0
-1001 47 0
-1001 46 0
1001 -47 -46 0
-956 -957 0
-956 1002 0
-957 1002 0
-1002 956 957 0
-1002 -958 0
-1002 1003 0
-958 1003 0
-1003 1002 958 0
-1003 -959 0
-1003 1004 0
-959 1004 0
-1004 1003 959 0
-1004 -960 0
-1004 1005 0
-960 1005 0
-1005 1004 960 0
-1005 -961 0
-1005 1006 0
-961 1006 0
-1006 1005 961 0
-1006 -962 0
-1006 1007 0
-962 1007 0
-1007 1006 962 0
-1007 -963 0
-1007 1008 0
-963 1008 0
-1008 1007 963 0
-1008 -964 0
-1008 1009 0
-964 1009 0
-1009 1008 964 0
-1009 -965 0
-1009 1010 0
-965 1010 0
-1010 1009 965 0
-1010 -966 0
-1010 1011 0
-966 1011 0
-1011 1010 966 0
-1011 -967 0
-1011 1012 0
-967 1012 0
-1012 1011 967 0
-1012 -968 0
-1012 1013 0
-968 1013 0
-1013 1012 968 0
-1013 -969 0
-1013 1014 0
-969 1014 0
-1014 1013 969 0
-1014 -970 0
-1014 1015 0
-970 1015 0
-1015 1014 970 0
-1015 -971 0
-1015 1016 0
-971 1016 0
-1016 1015 971 0
-1016 -972 0
-1016 1017 0
-972 1017 0
-1017 1016 972 0
-1017 -973 0
-1017 1018 0
-973 1018 0
-1018 1017 973 0
-1018 -974 0
-1018 1019 0
-974 1019 0
-1019 1018 974 0
-1019 -975 0
-1019 1020 0
-975 1020 0
-1020 1019 975 0
-1020 -976 0
-1020 1021 0
-976 1021 0
-1021 1020 976 0
-1021 -977 0
-1021 1022 0
-977 1022 0
-1022 1021 977 0
-1022 -978 0
-1022 1023 0
-978 1023 0
-1023 1022 978 0
-1023 -979 0
-1023 1024 0
-979 1024 0
-1024 1023 979 0
-1024 -980 0
-1024 1025 0
-980 1025 0
-1025 1024 980 0
-1025 -981 0
-1025 1026 0
-981 1026 0
-1026 1025 981 0
-1026 -982 0
-1026 1027 0
-982 1027 0
-1027 1026 982 0
-1027 -983 0
-1027 1028 0
-983 1028 0
-1028 1027 983 0
-1028 -984 0
-1028 1029 0
-984 1029 0
-1029 1028 984 0
-1029 -985 0
-1029 1030 0
-985 1030 0
-1030 1029 985 0
-1030 -986 0
-1030 1031 0
-986 1031 0
-1031 1030 986 0
-1031 -987 0
-1031 1032 0
-987 1032 0
-1032 1031 987 0
-1032 -988 0
-1032 1033 0
-988 1033 0
-1033 1032 988 0
-1033 -989 0
-1033 1034 0
-989 1034 0
-1034 1033 989 0
-1034 -990 0
-1034 1035 0
-990 1035 0
-1035 1034 990 0
-1035 -991 0
-1035 1036 0
-991 1036 0
-1036 1035 991 0
-1036 -992 0
-1036 1037 0
-992 1037 0
-1037 1036 992 0
-1037 -993 0
-1037 1038 0
-993 1038 0
-1038 1037 993 0
-1038 -994 0
-1038 1039 0
-994 1039 0
-1039 1038 994 0
-1039 -995 0
-1039 1040 0
-995 1040 0
-1040 1039 995 0
-1040 -996 0
-1040 1041 0
-996 1041 0
-1041 1040 996 0
-1041 -997 0
-1041 1042 0
-997 1042 0
-1042 1041 997 0
-1042 -998 0
-1042 1043 0
-998 1043 0
-1043 1042 998 0
-1043 -999 0
-1043 1044 0
-999 1044 0
-1044 1043 999 0
-1044 -1000 0
-1044 1045 0
-1000 1045 0
-1045 1044 1000 0
-1045 -1001 0
-1045 1046 0
-1001 1046 0
-1046 1045 1001 0
-1047 1 0
-1047 4 0
1047 -1 -4 0
-1048 2 0
-1048 19 0
1048 -2 -19 0
-1049 3 0
-1049 35 0
1049 -3 -35 0
-1050 4 0
-1050 9 0
1050 -4 -9 0
-1051 5 0
-1051 23 0
1051 -5 -23 0
-1052 6 0
-1052 11 0
1052 -6 -11 0
-1053 7 0
-1053 28 0
1053 -7 -28 0
-1054 9 0
-1054 16 0
1054 -9 -16 0
-1055 10 0
-1055 43 0
1055 -10 -43 0
-1056 11 0
-1056 18 0
1056 -11 -18 0
-1057 12 0
-1057 6 0
1057 -12 -6 0
-1058 13 0
-1058 21 0
1058 -13 -21 0
-1059 14 0
-1059 36 0
1059 -14 -36 0
-1060 15 0
-1060 45 0
1060 -15 -45 0
-1061 16 0
-1061 1 0
1061 -16 -1 0
-1062 17 0
-1062 38 0
1062 -17 -38 0
-1063 18 0
-1063 12 0
1063 -18 -12 0
-1064 19 0
-1064 27 0
1064 -19 -27 0
-1065 20 0
-1065 14 0
1065 -20 -14 0
-1066 21 0
-1066 13 0
1066 -21 -13 0
-1067 22 0
-1067 41 0
1067 -22 -41 0
-1068 23 0
-1068 5 0
1068 -23 -5 0
-1069 24 0
-1069 33 0
1069 -24 -33 0
-1070 25 0
-1070 42 0
1070 -25 -42 0
-1071 26 0
-1071 31 0
1071 -26 -31 0
-1072 27 0
-1072 34 0
1072 -27 -34 0
-1073 28 0
-1073 22 0
1073 -28 -22 0
-1074 29 0
-1074 37 0
1074 -29 -37 0
-1075 30 0
-1075 20 0
1075 -30 -20 0
-1076 31 0
-1076 25 0
1076 -31 -25 0
-1077 32 0
-1077 39 0
1077 -32 -39 0
-1078 33 0
-1078 46 0
1078 -33 -46 0
-1079 34 0
-1079 2 0
1079 -34 -2 0
-1080 35 0
-1080 3 0
1080 -35 -3 0
-1081 36 0
-1081 30 0
1081 -36 -30 0
-1082 37 0
-1082 29 0
1082 -37 -29 0
-1083 38 0
-1083 32 0
1083 -38 -32 0
-1084 39 0
-1084 17 0
1084 -39 -17 0
-1085 40 0
-1085 47 0
1085 -40 -47 0
-1086 41 0
-1086 7 0
1086 -41 -7 0
-1087 42 0
-1087 26 0
1087 -42 -26 0
-1088 43 0
-1088 40 0
1088 -43 -40 0
-1089 44 0
-1089 24 0
1089 -44 -24 0
-1090 45 0
-1090 15 0
1090 -45 -15 0
-1091 46 0
-1091 44 0
1091 -46 -44 0
-1092 47 0
-1092 10 0
1092 -47 -10 0
-1047 -1048 0
-1047 1093 0
-1048 1093 0
-1093 1047 1048 0
-1093 -1049 0
-1093 1094 0
-1049 1094 0
-1094 1093 1049 0
-1094 -1050 0
-1094 1095 0
-1050 1095 0
-1095 1094 1050 0
-1095 -1051 0
-1095 1096 0
-1051 1096 0
-1096 1095 1051 0
-1096 -1052 0
-1096 1097 0
-1052 1097 0
-1097 1096 1052 0
-1097 -1053 0
-1097 1098 0
-1053 1098 0
-1098 1097 1053 0
-1098 -1054 0
-1098 1099 0
-1054 1099 0
-1099 1098 1054 0
-1099 -1055 0
-1099 1100 0
-1055 1100 0
-1100 1099 1055 0
-1100 -1056 0
-1100 1101 0
-1056 1101 0
-1101 1100 1056 0
-1101 -1057 0
-1101 1102 0
-1057 1102 0
-1102 1101 1057 0
-1102 -1058 0
-1102 1103 0
-1058 1103 0
-1103 1102 1058 0
-1103 -1059 0
-1103 1104 0
-1059 1104 0
-1104 1103 1059 0
-1104 -1060 0
-1104 1105 0
-1060 1105 0
-1105 1104 1060 0
-1105 -1061 0
-1105 1106 0
-1061 1106 0
-1106 1105 1061 0
-1106 -1062 0
-1106 1107 0
-1062 1107 0
-1107 1106 1062 0
-1107 -1063 0
-1107 1108 0
-1063 1108 0
-1108 1107 1063 0
-1108 -1064 0
-1108 1109 0
-1064 1109 0
-1109 1108 1064 0
-1109 -1065 0
-1109 1110 0
-1065 1110 0
-1110 1109 1065 0
-1110 -1066 0
-1110 1111 0
-1066 1111 0
-1111 1110 1066 0
-1111 -1067 0
-1111 1112 0
-1067 1112 0
-1112 1111 1067 0
-1112 -1068 0
-1112 1113 0
-1068 1113 0
-1113 1112 1068 0
-1113 -1069 0
-1113 1114 0
-1069 1114 0
-1114 1113 1069 0
-1114 -1070 0
-1114 1115 0
-1070 1115 0
-1115 1114 1070 0
-1115 -1071 0
-1115 1116 0
-1071 1116 0
-1116 1115 1071 0
-1116 -1072 0
-1116 1117 0
-1072 1117 0
-1117 1116 1072 0
-1117 -1073 0
-1117 1118 0
-1073 1118 0
-1118 1117 1073 0
-1118 -1074 0
-1118 1119 0
-1074 1119 0
-1119 1118 1074 0
-1119 -1075 0
-1119 1120 0
-1075 1120 0
-1120 1119 1075 0
-1120 -1076 0
-1120 1121 0
-1076 1121 0
-1121 1120 1076 0
-1121 -1077 0
-1121 1122 0
-1077 1122 0
-1122 1121 1077 0
-1122 -1078 0
-1122 1123 0
-1078 1123 0
-1123 1122 1078 0
-1123 -1079 0
-1123 1124 0
-1079 1124 0
-1124 1123 1079 0
-1124 -1080 0
-1124 1125 0
-1080 1125 0
-1125 1124 1080 0
-1125 -1081 0
-1125 1126 0
-1081 1126 0
-1126 1125 1081 0
-1126 -1082 0
-1126 1127 0
-1082 1127 0
-1127 1126 1082 0
-1127 -1083 0
-1127 1128 0
-1083 1128 0
-1128 1127 1083 0
-1128 -1084 0
-1128 1129 0
-1084 1129 0
-1129 1128 1084 0
-1129 -1085 0
-1129 1130 0
-1085 1130 0
-1130 1129 1085 0
-1130 -1086 0
-1130 1131 0
-1086 1131 0
-1131 1130 1086 0
-1131 -1087 0
-1131 1132 0
-1087 1132 0
-1132 1131 1087 0
-1132 -1088 0
-1132 1133 0
-1088 1133 0
-1133 1132 1088 0
-1133 -1089 0
-1133 1134 0
-1089 1134 0
-1134 1133 1089 0
-1134 -1090 0
-1134 1135 0
-1090 1135 0
-1135 1134 1090 0
-1135 -1091 0
-1135 1136 0
-1091 1136 0
-1136 1135 1091 0
-1136 -1092 0
-1136 1137 0
-1092 1137 0
-1137 1136 1092 0
-1138 1 0
-1138 5 0
1138 -1 -5 0
-1139 2 0
-1139 34 0
1139 -2 -34 0
-1140 3 0
-1140 36 0
1140 -3 -36 0
-1141 4 0
-1141 23 0
1141 -4 -23 0
-1142 5 0
-1142 1 0
1142 -5 -1 0
-1143 6 0
-1143 12 0
1143 -6 -12 0
-1144 7 0
-1144 29 0
1144 -7 -29 0
-1145 8 0
-1145 4 0
1145 -8 -4 0
-1146 10 0
-1146 47 0
1146 -10 -47 0
-1147 11 0
-1147 19 0
1147 -11 -19 0
-1148 12 0
-1148 18 0
1148 -12 -18 0
-1149 13 0
-1149 22 0
1149 -13 -22 0
-1150 14 0
-1150 45 0
1150 -14 -45 0
-1151 15 0
-1151 20 0
1151 -15 -20 0
-1152 16 0
-1152 8 0
1152 -16 -8 0
-1153 17 0
-1153 39 0
1153 -17 -39 0
-1154 18 0
-1154 27 0
1154 -18 -27 0
-1155 19 0
-1155 2 0
1155 -19 -2 0
-1156 20 0
-1156 15 0
1156 -20 -15 0
-1157 21 0
-1157 28 0
1157 -21 -28 0
-1158 22 0
-1158 13 0
1158 -22 -13 0
-1159 23 0
-1159 16 0
1159 -23 -16 0
-1160 24 0
-1160 44 0
1160 -24 -44 0
-1161 25 0
-1161 43 0
1161 -25 -43 0
-1162 26 0
-1162 42 0
1162 -26 -42 0
-1163 27 0
-1163 6 0
1163 -27 -6 0
-1164 28 0
-1164 37 0
1164 -28 -37 0
-1165 29 0
-1165 7 0
1165 -29 -7 0
-1166 30 0
-1166 35 0
1166 -30 -35 0
-1167 31 0
-1167 26 0
1167 -31 -26 0
-1168 32 0
-1168 46 0
1168 -32 -46 0
-1169 33 0
-1169 24 0
1169 -33 -24 0
-1170 34 0
-1170 11 0
1170 -34 -11 0
-1171 35 0
-1171 14 0
1171 -35 -14 0
-1172 36 0
-1172 3 0
1172 -36 -3 0
-1173 37 0
-1173 41 0
1173 -37 -41 0
-1174 38 0
-1174 33 0
1174 -38 -33 0
-1175 39 0
-1175 32 0
1175 -39 -32 0
-1176 40 0
-1176 31 0
1176 -40 -31 0
-1177 41 0
-1177 21 0
1177 -41 -21 0
-1178 42 0
-1178 40 0
1178 -42 -40 0
-1179 43 0
-1179 10 0
1179 -43 -10 0
-1180 44 0
-1180 38 0
1180 -44 -38 0
-1181 45 0
-1181 30 0
1181 -45 -30 0
-1182 46 0
-1182 17 0
1182 -46 -17 0
-1183 47 0
-1183 25 0
1183 -47 -25 0
-1138 -1139 0
-1138 1184 0
-1139 1184 0
-1184 1138 1139 0
-1184 -1140 0
-1184 1185 0
-1140 1185 0
-1185 1184 1140 0
-1185 -1141 0
-1185 1186 0
-1141 1186 0
-1186 1185 1141 0
-1186 -1142 0
-1186 1187 0
-1142 1187 0
-1187 1186 1142 0
-1187 -1143 0
-1187 1188 0
-1143 1188 0
-1188 1187 1143 0
-1188 -1144 0
-1188 1189 0
-1144 1189 0
-1189 1188 1144 0
-1189 -1145 0
-1189 1190 0
-1145 1190 0
-1190 1189 1145 0
-1190 -1146 0
-1190 1191 0
-1146 1191 0
-1191 1190 1146 0
-1191 -1147 0
-1191 1192 0
-1147 1192 0
-1192 1191 1147 0
-1192 -1148 0
-1192 1193 0
-1148 1193 0
-1193 1192 1148 0
-1193 -1149 0
-1193 1194 0
-1149 1194 0
-1194 1193 1149 0
-1194 -1150 0
-1194 1195 0
-1150 1195 0
-1195 1194 1150 0
-1195 -1151 0
-1195 1196 0
-1151 1196 0
-1196 1195 1151 0
-1196 -1152 0
-1196 1197 0
-1152 1197 0
-1197 1196 1152 0
-1197 -1153 0
-1197 1198 0
-1153 1198 0
-1198 1197 1153 0
-1198 -1154 0
-1198 1199 0
-1154 1199 0
-1199 1198 1154 0
-1199 -1155 0
-1199 1200 0
-1155 1200 0
-1200 1199 1155 0
-1200 -1156 0
-1200 1201 0
-1156 1201 0
-1201 1200 1156 0
-1201 -1157 0
-1201 1202 0
-1157 1202 0
-1202 1201 1157 0
-1202 -1158 0
-1202 1203 0
-1158 1203 0
-1203 1202 1158 0
-1203 -1159 0
-1203 1204 0
-1159 1204 0
-1204 1203 1159 0
-1204 -1160 0
-1204 1205 0
-1160 1205 0
-1205 1204 1160 0
-1205 -1161 0
-1205 1206 0
-1161 1206 0
-1206 1205 1161 0
-1206 -1162 0
-1206 1207 0
-1162 1207 0
-1207 1206 1162 0
-1207 -1163 0
-1207 1208 0
-1163 1208 0
-1208 1207 1163 0
-1208 -1164 0
-1208 1209 0
-1164 1209 0
-1209 1208 1164 0
-1209 -1165 0
-1209 1210 0
-1165 1210 0
-1210 1209 1165 0
-1210 -1166 0
-1210 1211 0
-1166 1211 0
-1211 1210 1166 0
-1211 -1167 0
-1211 1212 0
-1167 1212 0
-1212 1211 1167 0
-1212 -1168 0
-1212 1213 0
-1168 1213 0
-1213 1212 1168 0
-1213 -1169 0
-1213 1214 0
-1169 1214 0
-1214 1213 1169 0
-1214 -1170 0
-1214 1215 0
-1170 1215 0
-1215 1214 1170 0
-1215 -1171 0
-1215 1216 0
-1171 1216 0
-1216 1215 1171 0
-1216 -1172 0
-1216 1217 0
-1172 1217 0
-1217 1216 1172 0
-1217 -1173 0
-1217 1218 0
-1173 1218 0
-1218 1217 1173 0
-1218 -1174 0
-1218 1219 0
-1174 1219 0
-1219 1218 1174 0
-1219 -1175 0
-1219 1220 0
-1175 1220 0
-1220 1219 1175 0
-1220 -1176 0
-1220 1221 0
-1176 1221 0
-1221 1220 1176 0
-1221 -1177 0
-1221 1222 0
-1177 1222 0
-1222 1221 1177 0
-1222 -1178 0
-1222 1223 0
-1178 1223 0
-1223 1222 1178 0
-1223 -1179 0
-1223 1224 0
-1179 1224 0
-1224 1223 1179 0
-1224 -1180 0
-1224 1225 0
-1180 1225 0
-1225 1224 1180 0
-1225 -1181 0
-1225 1226 0
-1181 1226 0
-1226 1225 1181 0
-1226 -1182 0
-1226 1227 0
-1182 1227 0
-1227 1226 1182 0
-1227 -1183 0
-1227 1228 0
-1183 1228 0
-1228 1227 1183 0
-1229 1 0
-1229 33 0
1229 -1 -33 0
-1230 2 0
-1230 3 0
1230 -2 -3 0
-1231 3 0
-1231 2 0
1231 -3 -2 0
-1232 4 0
-1232 25 0
1232 -4 -25 0
-1233 5 0
-1233 26 0
1233 -5 -26 0
-1234 6 0
-1234 21 0
1234 -6 -21 0
-1235 7 0
-1235 19 0
1235 -7 -19 0
-1236 8 0
-1236 32 0
1236 -8 -32 0
-1237 9 0
-1237 17 0
1237 -9 -17 0
-1238 11 0
-1238 30 0
1238 -11 -30 0
-1239 12 0
-1239 15 0
1239 -12 -15 0
-1240 13 0
-1240 24 0
1240 -13 -24 0
-1241 14 0
-1241 11 0
1241 -14 -11 0
-1242 15 0
-1242 12 0
1242 -15 -12 0
-1243 16 0
-1243 40 0
1243 -16 -40 0
-1244 17 0
-1244 8 0
1244 -17 -8 0
-1245 18 0
-1245 22 0
1245 -18 -22 0
-1246 19 0
-1246 37 0
1246 -19 -37 0
-1247 20 0
-1247 43 0
1247 -20 -43 0
-1248 21 0
-1248 18 0
1248 -21 -18 0
-1249 22 0
-1249 6 0
1249 -22 -6 0
-1250 23 0
-1250 44 0
1250 -23 -44 0
-1251 24 0
-1251 13 0
1251 -24 -13 0
-1252 25 0
-1252 16 0
1252 -25 -16 0
-1253 26 0
-1253 5 0
1253 -26 -5 0
-1254 27 0
-1254 14 0
1254 -27 -14 0
-1255 28 0
-1255 38 0
1255 -28 -38 0
-1256 29 0
-1256 39 0
1256 -29 -39 0
-1257 30 0
-1257 27 0
1257 -30 -27 0
-1258 31 0
-1258 35 0
1258 -31 -35 0
-1259 32 0
-1259 9 0
1259 -32 -9 0
-1260 33 0
-1260 23 0
1260 -33 -23 0
-1261 34 0
-1261 7 0
1261 -34 -7 0
-1262 35 0
-1262 42 0
1262 -35 -42 0
-1263 36 0
-1263 31 0
1263 -36 -31 0
-1264 37 0
-1264 34 0
1264 -37 -34 0
-1265 38 0
-1265 41 0
1265 -38 -41 0
-1266 39 0
-1266 29 0
1266 -39 -29 0
-1267 40 0
-1267 4 0
1267 -40 -4 0
-1268 41 0
-1268 46 0
1268 -41 -46 0
-1269 42 0
-1269 36 0
1269 -42 -36 0
-1270 43 0
-1270 45 0
1270 -43 -45 0
-1271 44 0
-1271 1 0
1271 -44 -1 0
-1272 45 0
-1272 47 0
1272 -45 -47 0
-1273 46 0
-1273 28 0
1273 -46 -28 0
-1274 47 0
-1274 20 0
1274 -47 -20 0
-1229 -1230 0
-1229 1275 0
-1230 1275 0
-1275 1229 1230 0
-1275 -1231 0
-1275 1276 0
-1231 1276 0
-1276 1275 1231 0
-1276 -1232 0
-1276 1277 0
-1232 1277 0
-1277 1276 1232 0
-1277 -1233 0
-1277 1278 0
-1233 1278 0
-1278 1277 1233 0
-1278 -1234 0
-1278 1279 0
-1234 1279 0
-1279 1278 1234 0
-1279 -1235 0
-1279 1280 0
-1235 1280 0
-1280 1279 1235 0
-1280 -1236 0
-1280 1281 0
-1236 1281 0
-1281 1280 1236 0
-1281 -1237 0
-1281 1282 0
-1237 1282 0
-1282 1281 1237 0
-1282 -1238 0
-1282 1283 0
-1238 1283 0
-1283 1282 1238 0
-1283 -1239 0
-1283 1284 0
-1239 1284 0
-1284 1283 1239 0
-1284 -1240 0
-1284 1285 0
-1240 1285 0
-1285 1284 1240 0
-1285 -1241 0
-1285 1286 0
-1241 1286 0
-1286 1285 1241 0
-1286 -1242 0
-1286 1287 0
-1242 1287 0
-1287 1286 1242 0
-1287 -1243 0
-1287 1288 0
-1243 1288 0
-1288 1287 1243 0
-1288 -1244 0
-1288 1289 0
-1244 1289 0
-1289 1288 1244 0
-1289 -1245 0
-1289 1290 0
-1245 1290 0
-1290 1289 1245 0
-1290 -1246 0
-1290 1291 0
-1246 1291 0
-1291 1290 1246 0
-1291 -1247 0
-1291 1292 0
-1247 1292 0
-1292 1291 1247 0
-1292 -1248 0
-1292 1293 0
-1248 1293 0
-1293 1292 1248 0
-1293 -1249 0
-1293 1294 0
-1249 1294 0
-1294 1293 1249 0
-1294 -1250 0
-1294 1295 0
-1250 1295 0
-1295 1294 1250 0
-1295 -1251 0
-1295 1296 0
-1251 1296 0
-1296 1295 1251 0
-1296 -1252 0
-1296 1297 0
-1252 1297 0
-1297 1296 1252 0
-1297 -1253 0
-1297 1298 0
-1253 1298 0
-1298 1297 1253 0
-1298 -1254 0
-1298 1299 0
-1254 1299 0
-1299 1298 1254 0
-1299 -1255 0
-1299 1300 0
-1255 1300 0
-1300 1299 1255 0
-1300 -1256 0
-1300 1301 0
-1256 1301 0
-1301 1300 1256 0
-1301 -1257 0
-1301 1302 0
-1257 1302 0
-1302 1301 1257 0
-1302 -1258 0
-1302 1303 0
-1258 1303 0
-1303 1302 1258 0
-1303 -1259 0
-1303 1304 0
-1259 1304 0
-1304 1303 1259 0
-1304 -1260 0
-1304 1305 0
-1260 1305 0
-1305 1304 1260 0
-1305 -1261 0
-1305 1306 0
-1261 1306 0
-1306 1305 1261 0
-1306 -1262 0
-1306 1307 0
-1262 1307 0
-1307 1306 1262 0
-1307 -1263 0
-1307 1308 0
-1263 1308 0
-1308 1307 1263 0
-1308 -1264 0
-1308 1309 0
-1264 1309 0
-1309 1308 1264 0
-1309 -1265 0
-1309 1310 0
-1265 1310 0
-1310 1309 1265 0
-1310 -1266 0
-1310 1311 0
-1266 1311 0
-1311 1310 1266 0
-1311 -1267 0
-1311 1312 0
-1267 1312 0
-1312 1311 1267 0
-1312 -1268 0
-1312 1313 0
-1268 1313 0
-1313 1312 1268 0
-1313 -1269 0
-1313 1314 0
-1269 1314 0
-1314 1313 1269 0
-1314 -1270 0
-1314 1315 0
-1270 1315 0
-1315 1314 1270 0
-1315 -1271 0
-1315 1316 0
-1271 1316 0
-1316 1315 1271 0
-1316 -1272 0
-1316 1317 0
-1272 1317 0
-1317 1316 1272 0
-1317 -1273 0
-1317 1318 0
-1273 1318 0
-1318 1317 1273 0
-1318 -1274 0
-1318 1319 0
-1274 1319 0
-1319 1318 1274 0
-1320 1 0
-1320 34 0
1320 -1 -34 0
-1321 2 0
-1321 4 0
1321 -2 -4 0
-1322 3 0
-1322 38 0
1322 -3 -38 0
-1323 4 0
-1323 12 0
1323 -4 -12 0
-1324 5 0
-1324 27 0
1324 -5 -27 0
-1325 6 0
-1325 9 0
1325 -6 -9 0
-1326 7 0
-1326 47 0
1326 -7 -47 0
-1327 8 0
-1327 19 0
1327 -8 -19 0
-1328 9 0
-1328 18 0
1328 -9 -18 0
-1329 10 0
-1329 28 0
1329 -10 -28 0
-1330 12 0
-1330 16 0
1330 -12 -16 0
-1331 13 0
-1331 25 0
1331 -13 -25 0
-1332 14 0
-1332 39 0
1332 -14 -39 0
-1333 15 0
-1333 46 0
1333 -15 -46 0
-1334 16 0
-1334 2 0
1334 -16 -2 0
-1335 17 0
-1335 36 0
1335 -17 -36 0
-1336 18 0
-1336 23 0
1336 -18 -23 0
-1337 19 0
-1337 1 0
1337 -19 -1 0
-1338 20 0
-1338 44 0
1338 -20 -44 0
-1339 21 0
-1339 43 0
1339 -21 -43 0
-1340 22 0
-1340 42 0
1340 -22 -42 0
-1341 23 0
-1341 6 0
1341 -23 -6 0
-1342 24 0
-1342 14 0
1342 -24 -14 0
-1343 25 0
-1343 13 0
1343 -25 -13 0
-1344 26 0
-1344 41 0
1344 -26 -41 0
-1345 27 0
-1345 5 0
1345 -27 -5 0
-1346 28 0
-1346 26 0
1346 -28 -26 0
-1347 29 0
-1347 40 0
1347 -29 -40 0
-1348 30 0
-1348 24 0
1348 -30 -24 0
-1349 31 0
-1349 22 0
1349 -31 -22 0
-1350 32 0
-1350 45 0
1350 -32 -45 0
-1351 33 0
-1351 20 0
1351 -33 -20 0
-1352 34 0
-1352 8 0
1352 -34 -8 0
-1353 35 0
-1353 33 0
1353 -35 -33 0
-1354 36 0
-1354 32 0
1354 -36 -32 0
-1355 37 0
-1355 31 0
1355 -37 -31 0
-1356 38 0
-1356 3 0
1356 -38 -3 0
-1357 39 0
-1357 30 0
1357 -39 -30 0
-1358 40 0
-1358 29 0
1358 -40 -29 0
-1359 41 0
-1359 10 0
1359 -41 -10 0
-1360 42 0
-1360 37 0
1360 -42 -37 0
-1361 43 0
-1361 7 0
1361 -43 -7 0
-1362 44 0
-1362 35 0
1362 -44 -35 0
-1363 45 0
-1363 17 0
1363 -45 -17 0
-1364 46 0
-1364 15 0
1364 -46 -15 0
-1365 47 0
-1365 21 0
1365 -47 -21 0
-1320 -1321 0
-1320 1366 0
-1321 1366 0
-1366 1320 1321 0
-1366 -1322 0
-1366 1367 0
-1322 1367 0
-1367 1366 1322 0
-1367 -1323 0
-1367 1368 0
-1323 1368 0
-1368 1367 1323 0
-1368 -1324 0
-1368 1369 0
-1324 1369 0
-1369 1368 1324 0
-1369 -1325 0
-1369 1370 0
-1325 1370 0
-1370 1369 1325 0
-1370 -1326 0
-1370 1371 0
-1326 1371 0
-1371 1370 1326 0
-1371 -1327 0
-1371 1372 0
-1327 1372 0
-1372 1371 1327 0
-1372 -1328 0
-1372 1373 0
-1328 1373 0
-1373 1372 1328 0
-1373 -1329 0
-1373 1374 0
-1329 1374 0
-1374 1373 1329 0
-1374 -1330 0
-1374 1375 0
-1330 1375 0
-1375 1374 1330 0
-1375 -1331 0
-1375 1376 0
-1331 1376 0
-1376 1375 1331 0
-1376 -1332 0
-1376 1377 0
-1332 1377 0
-1377 1376 1332 0
-1377 -1333 0
-1377 1378 0
-1333 1378 0
-1378 1377 1333 0
-1378 -1334 0
-1378 1379 0
-1334 1379 0
-1379 1378 1334 0
-1379 -1335 0
-1379 1380 0
-1335 1380 0
-1380 1379 1335 0
-1380 -1336 0
-1380 1381 0
-1336 1381 0
-1381 1380 1336 0
-1381 -1337 0
-1381 1382 0
-1337 1382 0
-1382 1381 1337 0
-1382 -1338 0
-1382 1383 0
-1338 1383 0
-1383 1382 1338 0
-1383 -1339 0
-1383 1384 0
-1339 1384 0
-1384 1383 1339 0
-1384 -1340 0
-1384 1385 0
-1340 1385 0
-1385 1384 1340 0
-1385 -1341 0
-1385 1386 0
-1341 1386 0
-1386 1385 1341 0
-1386 -1342 0
-1386 1387 0
-1342 1387 0
-1387 1386 1342 0
-1387 -1343 0
-1387 1388 0
-1343 1388 0
-1388 1387 1343 0
-1388 -1344 0
-1388 1389 0
-1344 1389 0
-1389 1388 1344 0
-1389 -1345 0
-1389 1390 0
-1345 1390 0
-1390 1389 1345 0
-1390 -1346 0
-1390 1391 0
-1346 1391 0
-1391 1390 1346 0
-1391 -1347 0
-1391 1392 0
-1347 1392 0
-1392 1391 1347 0
-1392 -1348 0
-1392 1393 0
-1348 1393 0
-1393 1392 1348 0
-1393 -1349 0
-1393 1394 0
-1349 1394 0
-1394 1393 1349 0
-1394 -1350 0
-1394 1395 0
-1350 1395 0
-1395 1394 1350 0
-1395 -1351 0
-1395 1396 0
-1351 1396 0
-1396 1395 1351 0
-1396 -1352 0
-1396 1397 0
-1352 1397 0
-1397 1396 1352 0
-1397 -1353 0
-1397 1398 0
-1353 1398 0
-1398 1397 1353 0
-1398 -1354 0
-1398 1399 0
-1354 1399 0
-1399 1398 1354 0
-1399 -1355 0
-1399 1400 0
-1355 1400 0
-1400 1399 1355 0
-1400 -1356 0
-1400 1401 0
-1356 1401 0
-1401 1400 1356 0
-1401 -1357 0
-1401 1402 0
-1357 1402 0
-1402 1401 1357 0
-1402 -1358 0
-1402 1403 0
-1358 1403 0
-1403 1402 1358 0
-1403 -1359 0
-1403 1404 0
-1359 1404 0
-1404 1403 1359 0
-1404 -1360 0
-1404 1405 0
-1360 1405 0
-1405 1404 1360 0
-1405 -1361 0
-1405 1406 0
-1361 1406 0
-1406 1405 1361 0
-1406 -1362 0
-1406 1407 0
-1362 1407 0
-1407 1406 1362 0
-1407 -1363 0
-1407 1408 0
-1363 1408 0
-1408 1407 1363 0
-1408 -1364 0
-1408 1409 0
-1364 1409 0
-1409 1408 1364 0
-1409 -1365 0
-1409 1410 0
-1365 1410 0
-1410 1409 1365 0
-1411 1 0
-1411 6 0
1411 -1 -6 0
-1412 2 0
-1412 5 0
1412 -2 -5 0
-1413 3 0
-1413 39 0
1413 -3 -39 0
-1414 4 0
-1414 27 0
1414 -4 -27 0
-1415 5 0
-1415 2 0
1415 -5 -2 0
-1416 6 0
-1416 23 0
1416 -6 -23 0
-1417 7 0
-1417 31 0
1417 -7 -31 0
-1418 8 0
-1418 34 0
1418 -8 -34 0
-1419 9 0
-1419 19 0
1419 -9 -19 0
-1420 10 0
-1420 29 0
1420 -10 -29 0
-1421 11 0
-1421 4 0
1421 -11 -4 0
-1422 13 0
-1422 26 0
1422 -13 -26 0
-1423 14 0
-1423 46 0
1423 -14 -46 0
-1424 15 0
-1424 24 0
1424 -15 -24 0
-1425 16 0
-1425 11 0
1425 -16 -11 0
-1426 17 0
-1426 45 0
1426 -17 -45 0
-1427 18 0
-1427 1 0
1427 -18 -1 0
-1428 19 0
-1428 8 0
1428 -19 -8 0
-1429 20 0
-1429 17 0
1429 -20 -17 0
-1430 21 0
-1430 47 0
1430 -21 -47 0
-1431 22 0
-1431 43 0
1431 -22 -43 0
-1432 23 0
-1432 18 0
1432 -23 -18 0
-1433 24 0
-1433 15 0
1433 -24 -15 0
-1434 25 0
-1434 28 0
1434 -25 -28 0
-1435 26 0
-1435 13 0
1435 -26 -13 0
-1436 27 0
-1436 16 0
1436 -27 -16 0
-1437 28 0
-1437 40 0
1437 -28 -40 0
-1438 29 0
-1438 10 0
1438 -29 -10 0
-1439 30 0
-1439 38 0
1439 -30 -38 0
-1440 31 0
-1440 37 0
1440 -31 -37 0
-1441 32 0
-1441 20 0
1441 -32 -20 0
-1442 33 0
-1442 35 0
1442 -33 -35 0
-1443 34 0
-1443 9 0
1443 -34 -9 0
-1444 35 0
-1444 44 0
1444 -35 -44 0
-1445 36 0
-1445 33 0
1445 -36 -33 0
-1446 37 0
-1446 42 0
1446 -37 -42 0
-1447 38 0
-1447 14 0
1447 -38 -14 0
-1448 39 0
-1448 3 0
1448 -39 -3 0
-1449 40 0
-1449 41 0
1449 -40 -41 0
-1450 41 0
-1450 25 0
1450 -41 -25 0
-1451 42 0
-1451 7 0
1451 -42 -7 0
-1452 43 0
-1452 21 0
1452 -43 -21 0
-1453 44 0
-1453 36 0
1453 -44 -36 0
-1454 45 0
-1454 32 0
1454 -45 -32 0
-1455 46 0
-1455 30 0
1455 -46 -30 0
-1456 47 0
-1456 22 0
1456 -47 -22 0
-1411 -1412 0
-1411 1457 0
-1412 1457 0
-1457 1411 1412 0
-1457 -1413 0
-1457 1458 0
-1413 1458 0
-1458 1457 1413 0
-1458 -1414 0
-1458 1459 0
-1414 1459 0
-1459 1458 1414 0
-1459 -1415 0
-1459 1460 0
-1415 1460 0
-1460 1459 1415 0
-1460 -1416 0
-1460 1461 0
-1416 1461 0
-1461 1460 1416 0
-1461 -1417 0
-1461 1462 0
-1417 1462 0
-1462 1461 1417 0
-1462 -1418 0
-1462 1463 0
-1418 1463 0
-1463 1462 1418 0
-1463 -1419 0
-1463 1464 0
-1419 1464 0
-1464 1463 1419 0
-1464 -1420 0
-1464 1465 0
-1420 1465 0
-1465 1464 1420 0
-1465 -1421 0
-1465 1466 0
-1421 1466 0
-1466 1465 1421 0
-1466 -1422 0
-1466 1467 0
-1422 1467 0
-1467 1466 1422 0
-1467 -1423 0
-1467 1468 0
-1423 1468 0
-1468 1467 1423 0
-1468 -1424 0
-1468 1469 0
-1424 1469 0
-1469 1468 1424 0
-1469 -1425 0
-1469 1470 0
-1425 1470 0
-1470 1469 1425 0
-1470 -1426 0
-1470 1471 0
-1426 1471 0
-1471 1470 1426 0
-1471 -1427 0
-1471 1472 0
-1427 1472 0
-1472 1471 1427 0
-1472 -1428 0
-1472 1473 0
-1428 1473 0
-1473 1472 1428 0
-1473 -1429 0
-1473 1474 0
-1429 1474 0
-1474 1473 1429 0
-1474 -1430 0
-1474 1475 0
-1430 1475 0
-1475 1474 1430 0
-1475 -1431 0
-1475 1476 0
-1431 1476 0
-1476 1475 1431 0
-1476 -1432 0
-1476 1477 0
-1432 1477 0
-1477 1476 1432 0
-1477 -1433 0
-1477 1478 0
-1433 1478 0
-1478 1477 1433 0
-1478 -1434 0
-1478 1479 0
-1434 1479 0
-1479 1478 1434 0
-1479 -1435 0
-1479 1480 0
-1435 1480 0
-1480 1479 1435 0
-1480 -1436 0
-1480 1481 0
-1436 1481 0
-1481 1480 1436 0
-1481 -1437 0
-1481 1482 0
-1437 1482 0
-1482 1481 1437 0
-1482 -1438 0
-1482 1483 0
-1438 1483 0
-1483 1482 1438 0
-1483 -1439 0
-1483 1484 0
-1439 1484 0
-1484 1483 1439 0
-1484 -1440 0
-1484 1485 0
-1440 1485 0
-1485 1484 1440 0
-1485 -1441 0
-1485 1486 0
-1441 1486 0
-1486 1485 1441 0
-1486 -1442 0
-1486 1487 0
-1442 1487 0
-1487 1486 1442 0
-1487 -1443 0
-1487 1488 0
-1443 1488 0
-1488 1487 1443 0
-1488 -1444 0
-1488 1489 0
-1444 1489 0
-1489 1488 1444 0
-1489 -1445 0
-1489 1490 0
-1445 1490 0
-1490 1489 1445 0
-1490 -1446 0
-1490 1491 0
-1446 1491 0
-1491 1490 1446 0
-1491 -1447 0
-1491 1492 0
-1447 1492 0
-1492 1491 1447 0
-1492 -1448 0
-1492 1493 0
-1448 1493 0
-1493 1492 1448 0
-1493 -1449 0
-1493 1494 0
-1449 1494 0
-1494 1493 1449 0
-1494 -1450 0
-1494 1495 0
-1450 1495 0
-1495 1494 1450 0
-1495 -1451 0
-1495 1496 0
-1451 1496 0
-1496 1495 1451 0
-1496 -1452 0
-1496 1497 0
-1452 1497 0
-1497 1496 1452 0
-1497 -1453 0
-1497 1498 0
-1453 1498 0
-1498 1497 1453 0
-1498 -1454 0
-1498 1499 0
-1454 1499 0
-1499 1498 1454 0
-1499 -1455 0
-1499 1500 0
-1455 1500 0
-1500 1499 1455 0
-1500 -1456 0
-1500 1501 0
-1456 1501 0
-1501 1500 1456 0
-1502 1 0
-1502 36 0
1502 -1 -36 0
-1503 2 0
-1503 24 0
1503 -2 -24 0
-1504 4 0
-1504 41 0
1504 -4 -41 0
-1505 5 0
-1505 29 0
1505 -5 -29 0
-1506 6 0
-1506 47 0
1506 -6 -47 0
-1507 7 0
-1507 22 0
1507 -7 -22 0
-1508 8 0
-1508 45 0
1508 -8 -45 0
-1509 9 0
-1509 20 0
1509 -9 -20 0
-1510 11 0
-1510 38 0
1510 -11 -38 0
-1511 12 0
-1511 39 0
1511 -12 -39 0
-1512 14 0
-1512 30 0
1512 -14 -30 0
-1513 16 0
-1513 28 0
1513 -16 -28 0
-1514 17 0
-1514 44 0
1514 -17 -44 0
-1515 18 0
-1515 43 0
1515 -18 -43 0
-1516 19 0
-1516 42 0
1516 -19 -42 0
-1517 20 0
-1517 9 0
1517 -20 -9 0
-1518 21 0
-1518 37 0
1518 -21 -37 0
-1519 22 0
-1519 7 0
1519 -22 -7 0
-1520 23 0
-1520 35 0
1520 -23 -35 0
-1521 24 0
-1521 2 0
1521 -24 -2 0
-1522 27 0
-1522 46 0
1522 -27 -46 0
-1523 28 0
-1523 16 0
1523 -28 -16 0
-1524 29 0
-1524 5 0
1524 -29 -5 0
-1525 30 0
-1525 14 0
1525 -30 -14 0
-1526 31 0
-1526 34 0
1526 -31 -34 0
-1527 32 0
-1527 33 0
1527 -32 -33 0
-1528 33 0
-1528 32 0
1528 -33 -32 0
-1529 34 0
-1529 31 0
1529 -34 -31 0
-1530 35 0
-1530 23 0
1530 -35 -23 0
-1531 36 0
-1531 1 0
1531 -36 -1 0
-1532 37 0
-1532 21 0
1532 -37 -21 0
-1533 38 0
-1533 11 0
1533 -38 -11 0
-1534 39 0
-1534 12 0
1534 -39 -12 0
-1535 41 0
-1535 4 0
1535 -41 -4 0
-1536 42 0
-1536 19 0
1536 -42 -19 0
-1537 43 0
-1537 18 0
1537 -43 -18 0
-1538 44 0
-1538 17 0
1538 -44 -17 0
-1539 45 0
-1539 8 0
1539 -45 -8 0
-1540 46 0
-1540 27 0
1540 -46 -27 0
-1541 47 0
-1541 6 0
1541 -47 -6 0
-1502 -1503 0
-1502 1542 0
-1503 1542 0
-1542 1502 1503 0
-1542 -3 0
-1542 1543 0
-3 1543 0
-1543 1542 3 0
-1543 -1504 0
-1543 1544 0
-1504 1544 0
-1544 1543 1504 0
-1544 -1505 0
-1544 1545 0
-1505 1545 0
-1545 1544 1505 0
-1545 -1506 0
-1545 1546 0
-1506 1546 0
-1546 1545 1506 0
-1546 -1507 0
-1546 1547 0
-1507 1547 0
-1547 1546 1507 0
-1547 -1508 0
-1547 1548 0
-1508 1548 0
-1548 1547 1508 0
-1548 -1509 0
-1548 1549 0
-1509 1549 0
-1549 1548 1509 0
-1549 -10 0
-1549 1550 0
-10 1550 0
-1550 1549 10 0
-1550 -1510 0
-1550 1551 0
-1510 1551 0
-1551 1550 1510 0
-1551 -1511 0
-1551 1552 0
-1511 1552 0
-1552 1551 1511 0
-1552 -1512 0
-1552 1553 0
-1512 1553 0
-1553 1552 1512 0
-1553 -15 0
-1553 1554 0
-15 1554 0
-1554 1553 15 0
-1554 -1513 0
-1554 1555 0
-1513 1555 0
-1555 1554 1513 0
-1555 -1514 0
-1555 1556 0
-1514 1556 0
-1556 1555 1514 0
-1556 -1515 0
-1556 1557 0
-1515 1557 0
-1557 1556 1515 0
-1557 -1516 0
-1557 1558 0
-1516 1558 0
-1558 1557 1516 0
-1558 -1517 0
-1558 1559 0
-1517 1559 0
-1559 1558 1517 0
-1559 -1518 0
-1559 1560 0
-1518 1560 0
-1560 1559 1518 0
-1560 -1519 0
-1560 1561 0
-1519 1561 0
-1561 1560 1519 0
-1561 -1520 0
-1561 1562 0
-1520 1562 0
-1562 1561 1520 0
-1562 -1521 0
-1562 1563 0
-1521 1563 0
-1563 1562 1521 0
-1563 -25 0
-1563 1564 0
-25 1564 0
-1564 1563 25 0
-1564 -26 0
-1564 1565 0
-26 1565 0
-1565 1564 26 0
-1565 -1522 0
-1565 1566 0
-1522 1566 0
-1566 1565 1522 0
-1566 -1523 0
-1566 1567 0
-1523 1567 0
-1567 1566 1523 0
-1567 -1524 0
-1567 1568 0
-1524 1568 0
-1568 1567 1524 0
-1568 -1525 0
-1568 1569 0
-1525 1569 0
-1569 1568 1525 0
-1569 -1526 0
-1569 1570 0
-1526 1570 0
-1570 1569 1526 0
-1570 -1527 0
-1570 1571 0
-1527 1571 0
-1571 1570 1527 0
-1571 -1528 0
-1571 1572 0
-1528 1572 0
-1572 1571 1528 0
-1572 -1529 0
-1572 1573 0
-1529 1573 0
-1573 1572 1529 0
-1573 -1530 0
-1573 1574 0
-1530 1574 0
-1574 1573 1530 0
-1574 -1531 0
-1574 1575 0
-1531 1575 0
-1575 1574 1531 0
-1575 -1532 0
-1575 1576 0
-1532 1576 0
-1576 1575 1532 0
-1576 -1533 0
-1576 1577 0
-1533 1577 0
-1577 1576 1533 0
-1577 -1534 0
-1577 1578 0
-1534 1578 0
-1578 1577 1534 0
-1578 -40 0
-1578 1579 0
-40 1579 0
-1579 1578 40 0
-1579 -1535 0
-1579 1580 0
-1535 1580 0
-1580 1579 1535 0
-1580 -1536 0
-1580 1581 0
-1536 1581 0
-1581 1580 1536 0
-1581 -1537 0
-1581 1582 0
-1537 1582 0
-1582 1581 1537 0
-1582 -1538 0
-1582 1583 0
-1538 1583 0
-1583 1582 1538 0
-1583 -1539 0
-1583 1584 0
-1539 1584 0
-1584 1583 1539 0
-1584 -1540 0
-1584 1585 0
-1540 1585 0
-1585 1584 1540 0
-1585 -1541 0
-1585 1586 0
-1541 1586 0
-1586 1585 1541 0
-1587 1 0
-1587 37 0
1587 -1 -37 0
-1588 2 0
-1588 25 0
1588 -2 -25 0
-1589 3 0
-1589 4 0
1589 -3 -4 0
-1590 4 0
-1590 3 0
1590 -4 -3 0
-1591 5 0
-1591 30 0
1591 -5 -30 0
-1592 6 0
-1592 17 0
1592 -6 -17 0
-1593 7 0
-1593 23 0
1593 -7 -23 0
-1594 8 0
-1594 7 0
1594 -8 -7 0
-1595 9 0
-1595 21 0
1595 -9 -21 0
-1596 10 0
-1596 11 0
1596 -10 -11 0
-1597 11 0
-1597 26 0
1597 -11 -26 0
-1598 12 0
-1598 40 0
1598 -12 -40 0
-1599 13 0
-1599 28 0
1599 -13 -28 0
-1600 15 0
-1600 16 0
1600 -15 -16 0
-1601 16 0
-1601 15 0
1601 -16 -15 0
-1602 17 0
-1602 6 0
1602 -17 -6 0
-1603 18 0
-1603 44 0
1603 -18 -44 0
-1604 19 0
-1604 33 0
1604 -19 -33 0
-1605 20 0
-1605 45 0
1605 -20 -45 0
-1606 21 0
-1606 1 0
1606 -21 -1 0
-1607 22 0
-1607 8 0
1607 -22 -8 0
-1608 23 0
-1608 22 0
1608 -23 -22 0
-1609 24 0
-1609 38 0
1609 -24 -38 0
-1610 25 0
-1610 12 0
1610 -25 -12 0
-1611 26 0
-1611 27 0
1611 -26 -27 0
-1612 27 0
-1612 10 0
1612 -27 -10 0
-1613 28 0
-1613 13 0
1613 -28 -13 0
-1614 29 0
-1614 41 0
1614 -29 -41 0
-1615 30 0
-1615 5 0
1615 -30 -5 0
-1616 32 0
-1616 34 0
1616 -32 -34 0
-1617 33 0
-1617 19 0
1617 -33 -19 0
-1618 34 0
-1618 32 0
1618 -34 -32 0
-1619 35 0
-1619 20 0
1619 -35 -20 0
-1620 36 0
-1620 35 0
1620 -36 -35 0
-1621 37 0
-1621 9 0
1621 -37 -9 0
-1622 38 0
-1622 39 0
1622 -38 -39 0
-1623 39 0
-1623 46 0
1623 -39 -46 0
-1624 40 0
-1624 2 0
1624 -40 -2 0
-1625 41 0
-1625 29 0
1625 -41 -29 0
-1626 42 0
-1626 47 0
1626 -42 -47 0
-1627 44 0
-1627 18 0
1627 -44 -18 0
-1628 45 0
-1628 36 0
1628 -45 -36 0
-1629 46 0
-1629 24 0
1629 -46 -24 0
-1630 47 0
-1630 42 0
1630 -47 -42 0
-1587 -1588 0
-1587 1631 0
-1588 1631 0
-1631 1587 1588 0
-1631 -1589 0
-1631 1632 0
-1589 1632 0
-1632 1631 1589 0
-1632 -1590 0
-1632 1633 0
-1590 1633 0
-1633 1632 1590 0
-1633 -1591 0
-1633 1634 0
-1591 1634 0
-1634 1633 1591 0
-1634 -1592 0
-1634 1635 0
-1592 1635 0
-1635 1634 1592 0
-1635 -1593 0
-1635 1636 0
-1593 1636 0
-1636 1635 1593 0
-1636 -1594 0
-1636 1637 0
-1594 1637 0
-1637 1636 1594 0
-1637 -1595 0
-1637 1638 0
-1595 1638 0
-1638 1637 1595 0
-1638 -1596 0
-1638 1639 0
-1596 1639 0
-1639 1638 1596 0
-1639 -1597 0
-1639 1640 0
-1597 1640 0
-1640 1639 1597 0
-1640 -1598 0
-1640 1641 0
-1598 1641 0
-1641 1640 1598 0
-1641 -1599 0
-1641 1642 0
-1599 1642 0
-1642 1641 1599 0
-1642 -1600 0
-1642 1643 0
-1600 1643 0
-1643 1642 1600 0
-1643 -1601 0
-1643 1644 0
-1601 1644 0
-1644 1643 1601 0
-1644 -1602 0
-1644 1645 0
-1602 1645 0
-1645 1644 1602 0
-1645 -1603 0
-1645 1646 0
-1603 1646 0
-1646 1645 1603 0
-1646 -1604 0
-1646 1647 0
-1604 1647 0
-1647 1646 1604 0
-1647 -1605 0
-1647 1648 0
-1605 1648 0
-1648 1647 1605 0
-1648 -1606 0
-1648 1649 0
-1606 1649 0
-1649 1648 1606 0
-1649 -1607 0
-1649 1650 0
-1607 1650 0
-1650 1649 1607 0
-1650 -1608 0
-1650 1651 0
-1608 1651 0
-1651 1650 1608 0
-1651 -1609 0
-1651 1652 0
-1609 1652 0
-1652 1651 1609 0
-1652 -1610 0
-1652 1653 0
-1610 1653 0
-1653 1652 1610 0
-1653 -1611 0
-1653 1654 0
-1611 1654 0
-1654 1653 1611 0
-1654 -1612 0
-1654 1655 0
-1612 1655 0
-1655 1654 1612 0
-1655 -1613 0
-1655 1656 0
-1613 1656 0
-1656 1655 1613 0
-1656 -1614 0
-1656 1657 0
-1614 1657 0
-1657 1656 1614 0
-1657 -1615 0
-1657 1658 0
-1615 1658 0
-1658 1657 1615 0
-1658 -31 0
-1658 1659 0
-31 1659 0
-1659 1658 31 0
-1659 -1616 0
-1659 1660 0
-1616 1660 0
-1660 1659 1616 0
-1660 -1617 0
-1660 1661 0
-1617 1661 0
-1661 1660 1617 0
-1661 -1618 0
-1661 1662 0
-1618 1662 0
-1662 1661 1618 0
-1662 -1619 0
-1662 1663 0
-1619 1663 0
-1663 1662 1619 0
-1663 -1620 0
-1663 1664 0
-1620 1664 0
-1664 1663 1620 0
-1664 -1621 0
-1664 1665 0
-1621 1665 0
-1665 1664 1621 0
-1665 -1622 0
-1665 1666 0
-1622 1666 0
-1666 1665 1622 0
-1666 -1623 0
-1666 1667 0
-1623 1667 0
-1667 1666 1623 0
-1667 -1624 0
-1667 1668 0
-1624 1668 0
-1668 1667 1624 0
-1668 -1625 0
-1668 1669 0
-1625 1669 0
-1669 1668 1625 0
-1669 -1626 0
-1669 1670 0
-1626 1670 0
-1670 1669 1626 0
-1670 -43 0
-1670 1671 0
-43 1671 0
-1671 1670 43 0
-1671 -1627 0
-1671 1672 0
-1627 1672 0
-1672 1671 1627 0
-1672 -1628 0
-1672 1673 0
-1628 1673 0
-1673 1672 1628 0
-1673 -1629 0
-1673 1674 0
-1629 1674 0
-1674 1673 1629 0
-1674 -1630 0
-1674 1675 0
-1630 1675 0
-1675 1674 1630 0
-1676 1 0
-1676 7 0
1676 -1 -7 0
-1677 2 0
-1677 26 0
1677 -2 -26 0
-1678 3 0
-1678 5 0
1678 -3 -5 0
-1679 4 0
-1679 14 0
1679 -4 -14 0
-1680 5 0
-1680 3 0
1680 -5 -3 0
-1681 6 0
-1681 32 0
1681 -6 -32 0
-1682 7 0
-1682 1 0
1682 -7 -1 0
-1683 8 0
-1683 21 0
1683 -8 -21 0
-1684 9 0
-1684 22 0
1684 -9 -22 0
-1685 10 0
-1685 12 0
1685 -10 -12 0
-1686 11 0
-1686 40 0
1686 -11 -40 0
-1687 12 0
-1687 10 0
1687 -12 -10 0
-1688 13 0
-1688 29 0
1688 -13 -29 0
-1689 14 0
-1689 4 0
1689 -14 -4 0
-1690 16 0
-1690 30 0
1690 -16 -30 0
-1691 17 0
-1691 18 0
1691 -17 -18 0
-1692 18 0
-1692 17 0
1692 -18 -17 0
-1693 19 0
-1693 44 0
1693 -19 -44 0
-1694 21 0
-1694 8 0
1694 -21 -8 0
-1695 22 0
-1695 9 0
1695 -22 -9 0
-1696 23 0
-1696 37 0
1696 -23 -37 0
-1697 24 0
-1697 39 0
1697 -24 -39 0
-1698 25 0
-1698 27 0
1698 -25 -27 0
-1699 26 0
-1699 2 0
1699 -26 -2 0
-1700 27 0
-1700 25 0
1700 -27 -25 0
-1701 29 0
-1701 13 0
1701 -29 -13 0
-1702 30 0
-1702 16 0
1702 -30 -16 0
-1703 31 0
-1703 42 0
1703 -31 -42 0
-1704 32 0
-1704 6 0
1704 -32 -6 0
-1705 33 0
-1705 34 0
1705 -33 -34 0
-1706 34 0
-1706 33 0
1706 -34 -33 0
-1707 37 0
-1707 23 0
1707 -37 -23 0
-1708 38 0
-1708 46 0
1708 -38 -46 0
-1709 39 0
-1709 24 0
1709 -39 -24 0
-1710 40 0
-1710 11 0
1710 -40 -11 0
-1711 42 0
-1711 31 0
1711 -42 -31 0
-1712 43 0
-1712 47 0
1712 -43 -47 0
-1713 44 0
-1713 19 0
1713 -44 -19 0
-1714 46 0
-1714 38 0
1714 -46 -38 0
-1715 47 0
-1715 43 0
1715 -47 -43 0
-1676 -1677 0
-1676 1716 0
-1677 1716 0
-1716 1676 1677 0
-1716 -1678 0
-1716 1717 0
-1678 1717 0
-1717 1716 1678 0
-1717 -1679 0
-1717 1718 0
-1679 1718 0
-1718 1717 1679 0
-1718 -1680 0
-1718 1719 0
-1680 1719 0
-1719 1718 1680 0
-1719 -1681 0
-1719 1720 0
-1681 1720 0
-1720 1719 1681 0
-1720 -1682 0
-1720 1721 0
-1682 1721 0
-1721 1720 1682 0
-1721 -1683 0
-1721 1722 0
-1683 1722 0
-1722 1721 1683 0
-1722 -1684 0
-1722 1723 0
-1684 1723 0
-1723 1722 1684 0
-1723 -1685 0
-1723 1724 0
-1685 1724 0
-1724 1723 1685 0
-1724 -1686 0
-1724 1725 0
-1686 1725 0
-1725 1724 1686 0
-1725 -1687 0
-1725 1726 0
-1687 1726 0
-1726 1725 1687 0
-1726 -1688 0
-1726 1727 0
-1688 1727 0
-1727 1726 1688 0
-1727 -1689 0
-1727 1728 0
-1689 1728 0
-1728 1727 1689 0
-1728 -1690 0
-1728 1729 0
-1690 1729 0
-1729 1728 1690 0
-1729 -1691 0
-1729 1730 0
-1691 1730 0
-1730 1729 1691 0
-1730 -1692 0
-1730 1731 0
-1692 1731 0
-1731 1730 1692 0
-1731 -1693 0
-1731 1732 0
-1693 1732 0
-1732 1731 1693 0
-1732 -20 0
-1732 1733 0
-20 1733 0
-1733 1732 20 0
-1733 -1694 0
-1733 1734 0
-1694 1734 0
-1734 1733 1694 0
-1734 -1695 0
-1734 1735 0
-1695 1735 0
-1735 1734 1695 0
-1735 -1696 0
-1735 1736 0
-1696 1736 0
-1736 1735 1696 0
-1736 -1697 0
-1736 1737 0
-1697 1737 0
-1737 1736 1697 0
-1737 -1698 0
-1737 1738 0
-1698 1738 0
-1738 1737 1698 0
-1738 -1699 0
-1738 1739 0
-1699 1739 0
-1739 1738 1699 0
-1739 -1700 0
-1739 1740 0
-1700 1740 0
-1740 1739 1700 0
-1740 -28 0
-1740 1741 0
-28 1741 0
-1741 1740 28 0
-1741 -1701 0
-1741 1742 0
-1701 1742 0
-1742 1741 1701 0
-1742 -1702 0
-1742 1743 0
-1702 1743 0
-1743 1742 1702 0
-1743 -1703 0
-1743 1744 0
-1703 1744 0
-1744 1743 1703 0
-1744 -1704 0
-1744 1745 0
-1704 1745 0
-1745 1744 1704 0
-1745 -1705 0
-1745 1746 0
-1705 1746 0
-1746 1745 1705 0
-1746 -1706 0
-1746 1747 0
-1706 1747 0
-1747 1746 1706 0
-1747 -35 0
-1747 1748 0
-35 1748 0
-1748 1747 35 0
-1748 -36 0
-1748 1749 0
-36 1749 0
-1749 1748 36 0
-1749 -1707 0
-1749 1750 0
-1707 1750 0
-1750 1749 1707 0
-1750 -1708 0
-1750 1751 0
-1708 1751 0
-1751 1750 1708 0
-1751 -1709 0
-1751 1752 0
-1709 1752 0
-1752 1751 1709 0
-1752 -1710 0
-1752 1753 0
-1710 1753 0
-1753 1752 1710 0
-1753 -41 0
-1753 1754 0
-41 1754 0
-1754 1753 41 0
-1754 -1711 0
-1754 1755 0
-1711 1755 0
-1755 1754 1711 0
-1755 -1712 0
-1755 1756 0
-1712 1756 0
-1756 1755 1712 0
-1756 -1713 0
-1756 1757 0
-1713 1757 0
-1757 1756 1713 0
-1757 -45 0
-1757 1758 0
-45 1758 0
-1758 1757 45 0
-1758 -1714 0
-1758 1759 0
-1714 1759 0
-1759 1758 1714 0
-1759 -1715 0
-1759 1760 0
-1715 1760 0
-1760 1759 1715 0
-1761 1 0
-1761 8 0
1761 -1 -8 0
-1762 2 0
-1762 27 0
1762 -2 -27 0
-1763 3 0
-1763 41 0
1763 -3 -41 0
-1764 4 0
-1764 5 0
1764 -4 -5 0
-1765 5 0
-1765 4 0
1765 -5 -4 0
-1766 6 0
-1766 19 0
1766 -6 -19 0
-1767 7 0
-1767 35 0
1767 -7 -35 0
-1768 8 0
-1768 9 0
1768 -8 -9 0
-1769 9 0
-1769 23 0
1769 -9 -23 0
-1770 10 0
-1770 46 0
1770 -10 -46 0
-1771 11 0
-1771 2 0
1771 -11 -2 0
-1772 12 0
-1772 11 0
1772 -12 -11 0
-1773 13 0
-1773 30 0
1773 -13 -30 0
-1774 14 0
-1774 29 0
1774 -14 -29 0
-1775 15 0
-1775 28 0
1775 -15 -28 0
-1776 17 0
-1776 43 0
1776 -17 -43 0
-1777 19 0
-1777 6 0
1777 -19 -6 0
-1778 20 0
-1778 21 0
1778 -20 -21 0
-1779 21 0
-1779 36 0
1779 -21 -36 0
-1780 22 0
-1780 45 0
1780 -22 -45 0
-1781 23 0
-1781 1 0
1781 -23 -1 0
-1782 24 0
-1782 40 0
1782 -24 -40 0
-1783 25 0
-1783 24 0
1783 -25 -24 0
-1784 26 0
-1784 38 0
1784 -26 -38 0
-1785 27 0
-1785 12 0
1785 -27 -12 0
-1786 28 0
-1786 15 0
1786 -28 -15 0
-1787 29 0
-1787 14 0
1787 -29 -14 0
-1788 30 0
-1788 13 0
1788 -30 -13 0
-1789 31 0
-1789 33 0
1789 -31 -33 0
-1790 32 0
-1790 42 0
1790 -32 -42 0
-1791 33 0
-1791 31 0
1791 -33 -31 0
-1792 35 0
-1792 22 0
1792 -35 -22 0
-1793 36 0
-1793 37 0
1793 -36 -37 0
-1794 37 0
-1794 20 0
1794 -37 -20 0
-1795 38 0
-1795 10 0
1795 -38 -10 0
-1796 39 0
-1796 25 0
1796 -39 -25 0
-1797 40 0
-1797 39 0
1797 -40 -39 0
-1798 41 0
-1798 3 0
1798 -41 -3 0
-1799 42 0
-1799 32 0
1799 -42 -32 0
-1800 43 0
-1800 17 0
1800 -43 -17 0
-1801 44 0
-1801 47 0
1801 -44 -47 0
-1802 45 0
-1802 7 0
1802 -45 -7 0
-1803 46 0
-1803 26 0
1803 -46 -26 0
-1804 47 0
-1804 44 0
1804 -47 -44 0
-1761 -1762 0
-1761 1805 0
-1762 1805 0
-1805 1761 1762 0
-1805 -1763 0
-1805 1806 0
-1763 1806 0
-1806 1805 1763 0
-1806 -1764 0
-1806 1807 0
-1764 1807 0
-1807 1806 1764 0
-1807 -1765 0
-1807 1808 0
-1765 1808 0
-1808 1807 1765 0
-1808 -1766 0
-1808 1809 0
-1766 1809 0
-1809 1808 1766 0
-1809 -1767 0
-1809 1810 0
-1767 1810 0
-1810 1809 1767 0
-1810 -1768 0
-1810 1811 0
-1768 1811 0
-1811 1810 1768 0
-1811 -1769 0
-1811 1812 0
-1769 1812 0
-1812 1811 1769 0
-1812 -1770 0
-1812 1813 0
-1770 1813 0
-1813 1812 1770 0
-1813 -1771 0
-1813 1814 0
-1771 1814 0
-1814 1813 1771 0
-1814 -1772 0
-1814 1815 0
-1772 1815 0
-1815 1814 1772 0
-1815 -1773 0
-1815 1816 0
-1773 1816 0
-1816 1815 1773 0
-1816 -1774 0
-1816 1817 0
-1774 1817 0
-1817 1816 1774 0
-1817 -1775 0
-1817 1818 0
-1775 1818 0
-1818 1817 1775 0
-1818 -1776 0
-1818 1819 0
-1776 1819 0
-1819 1818 1776 0
-1819 -18 0
-1819 1820 0
-18 1820 0
-1820 1819 18 0
-1820 -1777 0
-1820 1821 0
-1777 1821 0
-1821 1820 1777 0
-1821 -1778 0
-1821 1822 0
-1778 1822 0
-1822 1821 1778 0
-1822 -1779 0
-1822 1823 0
-1779 1823 0
-1823 1822 1779 0
-1823 -1780 0
-1823 1824 0
-1780 1824 0
-1824 1823 1780 0
-1824 -1781 0
-1824 1825 0
-1781 1825 0
-1825 1824 1781 0
-1825 -1782 0
-1825 1826 0
-1782 1826 0
-1826 1825 1782 0
-1826 -1783 0
-1826 1827 0
-1783 1827 0
-1827 1826 1783 0
-1827 -1784 0
-1827 1828 0
-1784 1828 0
-1828 1827 1784 0
-1828 -1785 0
-1828 1829 0
-1785 1829 0
-1829 1828 1785 0
-1829 -1786 0
-1829 1830 0
-1786 1830 0
-1830 1829 1786 0
-1830 -1787 0
-1830 1831 0
-1787 1831 0
-1831 1830 1787 0
-1831 -1788 0
-1831 1832 0
-1788 1832 0
-1832 1831 1788 0
-1832 -1789 0
-1832 1833 0
-1789 1833 0
-1833 1832 1789 0
-1833 -1790 0
-1833 1834 0
-1790 1834 0
-1834 1833 1790 0
-1834 -1791 0
-1834 1835 0
-1791 1835 0
-1835 1834 1791 0
-1835 -34 0
-1835 1836 0
-34 1836 0
-1836 1835 34 0
-1836 -1792 0
-1836 1837 0
-1792 1837 0
-1837 1836 1792 0
-1837 -1793 0
-1837 1838 0
-1793 1838 0
-1838 1837 1793 0
-1838 -1794 0
-1838 1839 0
-1794 1839 0
-1839 1838 1794 0
-1839 -1795 0
-1839 1840 0
-1795 1840 0
-1840 1839 1795 0
-1840 -1796 0
-1840 1841 0
-1796 1841 0
-1841 1840 1796 0
-1841 -1797 0
-1841 1842 0
-1797 1842 0
-1842 1841 1797 0
-1842 -1798 0
-1842 1843 0
-1798 1843 0
-1843 1842 1798 0
-1843 -1799 0
-1843 1844 0
-1799 1844 0
-1844 1843 1799 0
-1844 -1800 0
-1844 1845 0
-1800 1845 0
-1845 1844 1800 0
-1845 -1801 0
-1845 1846 0
-1801 1846 0
-1846 1845 1801 0
-1846 -1802 0
-1846 1847 0
-1802 1847 0
-1847 1846 1802 0
-1847 -1803 0
-1847 1848 0
-1803 1848 0
-1848 1847 1803 0
-1848 -1804 0
-1848 1849 0
-1804 1849 0
-1849 1848 1804 0
-1850 1 0
-1850 10 0
1850 -1 -10 0
-1851 2 0
-1851 37 0
1851 -2 -37 0
-1852 3 0
-1852 6 0
1852 -3 -6 0
-1853 4 0
-1853 44 0
1853 -4 -44 0
-1854 5 0
-1854 33 0
1854 -5 -33 0
-1855 6 0
-1855 3 0
1855 -6 -3 0
-1856 7 0
-1856 2 0
1856 -7 -2 0
-1857 8 0
-1857 25 0
1857 -8 -25 0
-1858 9 0
-1858 26 0
1858 -9 -26 0
-1859 10 0
-1859 23 0
1859 -10 -23 0
-1860 11 0
-1860 7 0
1860 -11 -7 0
-1861 12 0
-1861 21 0
1861 -12 -21 0
-1862 13 0
-1862 31 0
1862 -13 -31 0
-1863 14 0
-1863 34 0
1863 -14 -34 0
-1864 15 0
-1864 19 0
1864 -15 -19 0
-1865 16 0
-1865 32 0
1865 -16 -32 0
-1866 18 0
-1866 30 0
1866 -18 -30 0
-1867 19 0
-1867 15 0
1867 -19 -15 0
-1868 20 0
-1868 24 0
1868 -20 -24 0
-1869 21 0
-1869 11 0
1869 -21 -11 0
-1870 22 0
-1870 12 0
1870 -22 -12 0
-1871 23 0
-1871 40 0
1871 -23 -40 0
-1872 24 0
-1872 45 0
1872 -24 -45 0
-1873 25 0
-1873 1 0
1873 -25 -1 0
-1874 26 0
-1874 8 0
1874 -26 -8 0
-1875 27 0
-1875 22 0
1875 -27 -22 0
-1876 28 0
-1876 47 0
1876 -28 -47 0
-1877 29 0
-1877 43 0
1877 -29 -43 0
-1878 30 0
-1878 18 0
1878 -30 -18 0
-1879 31 0
-1879 13 0
1879 -31 -13 0
-1880 32 0
-1880 16 0
1880 -32 -16 0
-1881 33 0
-1881 5 0
1881 -33 -5 0
-1882 34 0
-1882 14 0
1882 -34 -14 0
-1883 35 0
-1883 38 0
1883 -35 -38 0
-1884 36 0
-1884 39 0
1884 -36 -39 0
-1885 37 0
-1885 27 0
1885 -37 -27 0
-1886 38 0
-1886 20 0
1886 -38 -20 0
-1887 39 0
-1887 35 0
1887 -39 -35 0
-1888 40 0
-1888 9 0
1888 -40 -9 0
-1889 41 0
-1889 42 0
1889 -41 -42 0
-1890 42 0
-1890 41 0
1890 -42 -41 0
-1891 43 0
-1891 29 0
1891 -43 -29 0
-1892 44 0
-1892 4 0
1892 -44 -4 0
-1893 45 0
-1893 46 0
1893 -45 -46 0
-1894 46 0
-1894 36 0
1894 -46 -36 0
-1895 47 0
-1895 28 0
1895 -47 -28 0
-1850 -1851 0
-1850 1896 0
-1851 1896 0
-1896 1850 1851 0
-1896 -1852 0
-1896 1897 0
-1852 1897 0
-1897 1896 1852 0
-1897 -1853 0
-1897 1898 0
-1853 1898 0
-1898 1897 1853 0
-1898 -1854 0
-1898 1899 0
-1854 1899 0
-1899 1898 1854 0
-1899 -1855 0
-1899 1900 0
-1855 1900 0
-1900 1899 1855 0
-1900 -1856 0
-1900 1901 0
-1856 1901 0
-1901 1900 1856 0
-1901 -1857 0
-1901 1902 0
-1857 1902 0
-1902 1901 1857 0
-1902 -1858 0
-1902 1903 0
-1858 1903 0
-1903 1902 1858 0
-1903 -1859 0
-1903 1904 0
-1859 1904 0
-1904 1903 1859 0
-1904 -1860 0
-1904 1905 0
-1860 1905 0
-1905 1904 1860 0
-1905 -1861 0
-1905 1906 0
-1861 1906 0
-1906 1905 1861 0
-1906 -1862 0
-1906 1907 0
-1862 1907 0
-1907 1906 1862 0
-1907 -1863 0
-1907 1908 0
-1863 1908 0
-1908 1907 1863 0
-1908 -1864 0
-1908 1909 0
-1864 1909 0
-1909 1908 1864 0
-1909 -1865 0
-1909 1910 0
-1865 1910 0
-1910 1909 1865 0
-1910 -1866 0
-1910 1911 0
-1866 1911 0
-1911 1910 1866 0
-1911 -1867 0
-1911 1912 0
-1867 1912 0
-1912 1911 1867 0
-1912 -1868 0
-1912 1913 0
-1868 1913 0
-1913 1912 1868 0
-1913 -1869 0
-1913 1914 0
-1869 1914 0
-1914 1913 1869 0
-1914 -1870 0
-1914 1915 0
-1870 1915 0
-1915 1914 1870 0
-1915 -1871 0
-1915 1916 0
-1871 1916 0
-1916 1915 1871 0
-1916 -1872 0
-1916 1917 0
-1872 1917 0
-1917 1916 1872 0
-1917 -1873 0
-1917 1918 0
-1873 1918 0
-1918 1917 1873 0
-1918 -1874 0
-1918 1919 0
-1874 1919 0
-1919 1918 1874 0
-1919 -1875 0
-1919 1920 0
-1875 1920 0
-1920 1919 1875 0
-1920 -1876 0
-1920 1921 0
-1876 1921 0
-1921 1920 1876 0
-1921 -1877 0
-1921 1922 0
-1877 1922 0
-1922 1921 1877 0
-1922 -1878 0
-1922 1923 0
-1878 1923 0
-1923 1922 1878 0
-1923 -1879 0
-1923 1924 0
-1879 1924 0
-1924 1923 1879 0
-1924 -1880 0
-1924 1925 0
-1880 1925 0
-1925 1924 1880 0
-1925 -1881 0
-1925 1926 0
-1881 1926 0
-1926 1925 1881 0
-1926 -1882 0
-1926 1927 0
-1882 1927 0
-1927 1926 1882 0
-1927 -1883 0
-1927 1928 0
-1883 1928 0
-1928 1927 1883 0
-1928 -1884 0
-1928 1929 0
-1884 1929 0
-1929 1928 1884 0
-1929 -1885 0
-1929 1930 0
-1885 1930 0
-1930 1929 1885 0
-1930 -1886 0
-1930 1931 0
-1886 1931 0
-1931 1930 1886 0
-1931 -1887 0
-1931 1932 0
-1887 1932 0
-1932 1931 1887 0
-1932 -1888 0
-1932 1933 0
-1888 1933 0
-1933 1932 1888 0
-1933 -1889 0
-1933 1934 0
-1889 1934 0
-1934 1933 1889 0
-1934 -1890 0
-1934 1935 0
-1890 1935 0
-1935 1934 1890 0
-1935 -1891 0
-1935 1936 0
-1891 1936 0
-1936 1935 1891 0
-1936 -1892 0
-1936 1937 0
-1892 1937 0
-1937 1936 1892 0
-1937 -1893 0
-1937 1938 0
-1893 1938 0
-1938 1937 1893 0
-1938 -1894 0
-1938 1939 0
-1894 1939 0
-1939 1938 1894 0
-1939 -1895 0
-1939 1940 0
-1895 1940 0
-1940 1939 1895 0
-1941 1 0
-1941 11 0
1941 -1 -11 0
-1942 2 0
-1942 1 0
1942 -2 -1 0
-1943 3 0
-1943 42 0
1943 -3 -42 0
-1944 4 0
-1944 6 0
1944 -4 -6 0
-1945 5 0
-1945 34 0
1945 -5 -34 0
-1946 6 0
-1946 4 0
1946 -6 -4 0
-1947 7 0
-1947 38 0
1947 -7 -38 0
-1948 8 0
-1948 12 0
1948 -8 -12 0
-1949 9 0
-1949 27 0
1949 -9 -27 0
-1950 10 0
-1950 20 0
1950 -10 -20 0
-1951 11 0
-1951 8 0
1951 -11 -8 0
-1952 12 0
-1952 9 0
1952 -12 -9 0
-1953 13 0
-1953 32 0
1953 -13 -32 0
-1954 14 0
-1954 31 0
1954 -14 -31 0
-1955 15 0
-1955 47 0
1955 -15 -47 0
-1956 16 0
-1956 19 0
1956 -16 -19 0
-1957 17 0
-1957 28 0
1957 -17 -28 0
-1958 19 0
-1958 16 0
1958 -19 -16 0
-1959 20 0
-1959 25 0
1959 -20 -25 0
-1960 21 0
-1960 39 0
1960 -21 -39 0
-1961 22 0
-1961 46 0
1961 -22 -46 0
-1962 23 0
-1962 2 0
1962 -23 -2 0
-1963 24 0
-1963 7 0
1963 -24 -7 0
-1964 25 0
-1964 35 0
1964 -25 -35 0
-1965 26 0
-1965 36 0
1965 -26 -36 0
-1966 27 0
-1966 23 0
1966 -27 -23 0
-1967 28 0
-1967 17 0
1967 -28 -17 0
-1968 29 0
-1968 44 0
1968 -29 -44 0
-1969 30 0
-1969 43 0
1969 -30 -43 0
-1970 31 0
-1970 14 0
1970 -31 -14 0
-1971 32 0
-1971 13 0
1971 -32 -13 0
-1972 33 0
-1972 41 0
1972 -33 -41 0
-1973 34 0
-1973 5 0
1973 -34 -5 0
-1974 35 0
-1974 26 0
1974 -35 -26 0
-1975 36 0
-1975 40 0
1975 -36 -40 0
-1976 37 0
-1976 24 0
1976 -37 -24 0
-1977 38 0
-1977 21 0
1977 -38 -21 0
-1978 39 0
-1978 22 0
1978 -39 -22 0
-1979 40 0
-1979 45 0
1979 -40 -45 0
-1980 41 0
-1980 33 0
1980 -41 -33 0
-1981 42 0
-1981 3 0
1981 -42 -3 0
-1982 43 0
-1982 30 0
1982 -43 -30 0
-1983 44 0
-1983 29 0
1983 -44 -29 0
-1984 45 0
-1984 10 0
1984 -45 -10 0
-1985 46 0
-1985 37 0
1985 -46 -37 0
-1986 47 0
-1986 15 0
1986 -47 -15 0
-1941 -1942 0
-1941 1987 0
-1942 1987 0
-1987 1941 1942 0
-1987 -1943 0
-1987 1988 0
-1943 1988 0
-1988 1987 1943 0
-1988 -1944 0
-1988 1989 0
-1944 1989 0
-1989 1988 1944 0
-1989 -1945 0
-1989 1990 0
-1945 1990 0
-1990 1989 1945 0
-1990 -1946 0
-1990 1991 0
-1946 1991 0
-1991 1990 1946 0
-1991 -1947 0
-1991 1992 0
-1947 1992 0
-1992 1991 1947 0
-1992 -1948 0
-1992 1993 0
-1948 1993 0
-1993 1992 1948 0
-1993 -1949 0
-1993 1994 0
-1949 1994 0
-1994 1993 1949 0
-1994 -1950 0
-1994 1995 0
-1950 1995 0
-1995 1994 1950 0
-1995 -1951 0
-1995 1996 0
-1951 1996 0
-1996 1995 1951 0
-1996 -1952 0
-1996 1997 0
-1952 1997 0
-1997 1996 1952 0
-1997 -1953 0
-1997 1998 0
-1953 1998 0
-1998 1997 1953 0
-1998 -1954 0
-1998 1999 0
-1954 1999 0
-1999 1998 1954 0
-1999 -1955 0
-1999 2000 0
-1955 2000 0
-2000 1999 1955 0
-2000 -1956 0
-2000 2001 0
-1956 2001 0
-2001 2000 1956 0
-2001 -1957 0
-2001 2002 0
-1957 2002 0
-2002 2001 1957 0
-2002 -1958 0
-2002 2003 0
-1958 2003 0
-2003 2002 1958 0
-2003 -1959 0
-2003 2004 0
-1959 2004 0
-2004 2003 1959 0
-2004 -1960 0
-2004 2005 0
-1960 2005 0
-2005 2004 1960 0
-2005 -1961 0
-2005 2006 0
-1961 2006 0
-2006 2005 1961 0
-2006 -1962 0
-2006 2007 0
-1962 2007 0
-2007 2006 1962 0
-2007 -1963 0
-2007 2008 0
-1963 2008 0
-2008 2007 1963 0
-2008 -1964 0
-2008 2009 0
-1964 2009 0
-2009 2008 1964 0
-2009 -1965 0
-2009 2010 0
-1965 2010 0
-2010 2009 1965 0
-2010 -1966 0
-2010 2011 0
-1966 2011 0
-2011 2010 1966 0
-2011 -1967 0
-2011 2012 0
-1967 2012 0
-2012 2011 1967 0
-2012 -1968 0
-2012 2013 0
-1968 2013 0
-2013 2012 1968 0
-2013 -1969 0
-2013 2014 0
-1969 2014 0
-2014 2013 1969 0
-2014 -1970 0
-2014 2015 0
-1970 2015 0
-2015 2014 1970 0
-2015 -1971 0
-2015 2016 0
-1971 2016 0
-2016 2015 1971 0
-2016 -1972 0
-2016 2017 0
-1972 2017 0
-2017 2016 1972 0
-2017 -1973 0
-2017 2018 0
-1973 2018 0
-2018 2017 1973 0
-2018 -1974 0
-2018 2019 0
-1974 2019 0
-2019 2018 1974 0
-2019 -1975 0
-2019 2020 0
-1975 2020 0
-2020 2019 1975 0
-2020 -1976 0
-2020 2021 0
-1976 2021 0
-2021 2020 1976 0
-2021 -1977 0
-2021 2022 0
-1977 2022 0
-2022 2021 1977 0
-2022 -1978 0
-2022 2023 0
-1978 2023 0
-2023 2022 1978 0
-2023 -1979 0
-2023 2024 0
-1979 2024 0
-2024 2023 1979 0
-2024 -1980 0
-2024 2025 0
-1980 2025 0
-2025 2024 1980 0
-2025 -1981 0
-2025 2026 0
-1981 2026 0
-2026 2025 1981 0
-2026 -1982 0
-2026 2027 0
-1982 2027 0
-2027 2026 1982 0
-2027 -1983 0
-2027 2028 0
-1983 2028 0
-2028 2027 1983 0
-2028 -1984 0
-2028 2029 0
-1984 2029 0
-2029 2028 1984 0
-2029 -1985 0
-2029 2030 0
-1985 2030 0
-2030 2029 1985 0
-2030 -1986 0
-2030 2031 0
-1986 2031 0
-2031 2030 1986 0
-2032 1 0
-2032 12 0
2032 -1 -12 0
-2033 2 0
-2033 8 0
2033 -2 -8 0
-2034 3 0
-2034 43 0
2034 -3 -43 0
-2035 4 0
-2035 18 0
2035 -4 -18 0
-2036 5 0
-2036 6 0
2036 -5 -6 0
-2037 6 0
-2037 5 0
2037 -6 -5 0
-2038 7 0
-2038 39 0
2038 -7 -39 0
-2039 8 0
-2039 27 0
2039 -8 -27 0
-2040 9 0
-2040 2 0
2040 -9 -2 0
-2041 10 0
-2041 35 0
2041 -10 -35 0
-2042 11 0
-2042 9 0
2042 -11 -9 0
-2043 12 0
-2043 23 0
2043 -12 -23 0
-2044 13 0
-2044 33 0
2044 -13 -33 0
-2045 14 0
-2045 42 0
2045 -14 -42 0
-2046 15 0
-2046 31 0
2046 -15 -31 0
-2047 16 0
-2047 34 0
2047 -16 -34 0
-2048 17 0
-2048 29 0
2048 -17 -29 0
-2049 18 0
-2049 4 0
2049 -18 -4 0
-2050 20 0
-2050 26 0
2050 -20 -26 0
-2051 21 0
-2051 46 0
2051 -21 -46 0
-2052 22 0
-2052 24 0
2052 -22 -24 0
-2053 23 0
-2053 11 0
2053 -23 -11 0
-2054 24 0
-2054 21 0
2054 -24 -21 0
-2055 25 0
-2055 36 0
2055 -25 -36 0
-2056 26 0
-2056 45 0
2056 -26 -45 0
-2057 27 0
-2057 1 0
2057 -27 -1 0
-2058 28 0
-2058 32 0
2058 -28 -32 0
-2059 29 0
-2059 17 0
2059 -29 -17 0
-2060 30 0
-2060 47 0
2060 -30 -47 0
-2061 31 0
-2061 15 0
2061 -31 -15 0
-2062 32 0
-2062 28 0
2062 -32 -28 0
-2063 33 0
-2063 13 0
2063 -33 -13 0
-2064 34 0
-2064 16 0
2064 -34 -16 0
-2065 35 0
-2065 40 0
2065 -35 -40 0
-2066 36 0
-2066 10 0
2066 -36 -10 0
-2067 37 0
-2067 38 0
2067 -37 -38 0
-2068 38 0
-2068 22 0
2068 -38 -22 0
-2069 39 0
-2069 37 0
2069 -39 -37 0
-2070 40 0
-2070 20 0
2070 -40 -20 0
-2071 41 0
-2071 44 0
2071 -41 -44 0
-2072 42 0
-2072 14 0
2072 -42 -14 0
-2073 43 0
-2073 3 0
2073 -43 -3 0
-2074 44 0
-2074 41 0
2074 -44 -41 0
-2075 45 0
-2075 25 0
2075 -45 -25 0
-2076 46 0
-2076 7 0
2076 -46 -7 0
-2077 47 0
-2077 30 0
2077 -47 -30 0
-2032 -2033 0
-2032 2078 0
-2033 2078 0
-2078 2032 2033 0
-2078 -2034 0
-2078 2079 0
-2034 2079 0
-2079 2078 2034 0
-2079 -2035 0
-2079 2080 0
-2035 2080 0
-2080 2079 2035 0
-2080 -2036 0
-2080 2081 0
-2036 2081 0
-2081 2080 2036 0
-2081 -2037 0
-2081 2082 0
-2037 2082 0
-2082 2081 2037 0
-2082 -2038 0
-2082 2083 0
-2038 2083 0
-2083 2082 2038 0
-2083 -2039 0
-2083 2084 0
-2039 2084 0
-2084 2083 2039 0
-2084 -2040 0
-2084 2085 0
-2040 2085 0
-2085 2084 2040 0
-2085 -2041 0
-2085 2086 0
-2041 2086 0
-2086 2085 2041 0
-2086 -2042 0
-2086 2087 0
-2042 2087 0
-2087 2086 2042 0
-2087 -2043 0
-2087 2088 0
-2043 2088 0
-2088 2087 2043 0
-2088 -2044 0
-2088 2089 0
-2044 2089 0
-2089 2088 2044 0
-2089 -2045 0
-2089 2090 0
-2045 2090 0
-2090 2089 2045 0
-2090 -2046 0
-2090 2091 0
-2046 2091 0
-2091 2090 2046 0
-2091 -2047 0
-2091 2092 0
-2047 2092 0
-2092 2091 2047 0
-2092 -2048 0
-2092 2093 0
-2048 2093 0
-2093 2092 2048 0
-2093 -2049 0
-2093 2094 0
-2049 2094 0
-2094 2093 2049 0
-2094 -2050 0
-2094 2095 0
-2050 2095 0
-2095 2094 2050 0
-2095 -2051 0
-2095 2096 0
-2051 2096 0
-2096 2095 2051 0
-2096 -2052 0
-2096 2097 0
-2052 2097 0
-2097 2096 2052 0
-2097 -2053 0
-2097 2098 0
-2053 2098 0
-2098 2097 2053 0
-2098 -2054 0
-2098 2099 0
-2054 2099 0
-2099 2098 2054 0
-2099 -2055 0
-2099 2100 0
-2055 2100 0
-2100 2099 2055 0
-2100 -2056 0
-2100 2101 0
-2056 2101 0
-2101 2100 2056 0
-2101 -2057 0
-2101 2102 0
-2057 2102 0
-2102 2101 2057 0
-2102 -2058 0
-2102 2103 0
-2058 2103 0
-2103 2102 2058 0
-2103 -2059 0
-2103 2104 0
-2059 2104 0
-2104 2103 2059 0
-2104 -2060 0
-2104 2105 0
-2060 2105 0
-2105 2104 2060 0
-2105 -2061 0
-2105 2106 0
-2061 2106 0
-2106 2105 2061 0
-2106 -2062 0
-2106 2107 0
-2062 2107 0
-2107 2106 2062 0
-2107 -2063 0
-2107 2108 0
-2063 2108 0
-2108 2107 2063 0
-2108 -2064 0
-2108 2109 0
-2064 2109 0
-2109 2108 2064 0
-2109 -2065 0
-2109 2110 0
-2065 2110 0
-2110 2109 2065 0
-2110 -2066 0
-2110 2111 0
-2066 2111 0
-2111 2110 2066 0
-2111 -2067 0
-2111 2112 0
-2067 2112 0
-2112 2111 2067 0
-2112 -2068 0
-2112 2113 0
-2068 2113 0
-2113 2112 2068 0
-2113 -2069 0
-2113 2114 0
-2069 2114 0
-2114 2113 2069 0
-2114 -2070 0
-2114 2115 0
-2070 2115 0
-2115 2114 2070 0
-2115 -2071 0
-2115 2116 0
-2071 2116 0
-2116 2115 2071 0
-2116 -2072 0
-2116 2117 0
-2072 2117 0
-2117 2116 2072 0
-2117 -2073 0
-2117 2118 0
-2073 2118 0
-2118 2117 2073 0
-2118 -2074 0
-2118 2119 0
-2074 2119 0
-2119 2118 2074 0
-2119 -2075 0
-2119 2120 0
-2075 2120 0
-2120 2119 2075 0
-2120 -2076 0
-2120 2121 0
-2076 2121 0
-2121 2120 2076 0
-2121 -2077 0
-2121 2122 0
-2077 2122 0
-2122 2121 2077 0
-2123 1 0
-2123 13 0
2123 -1 -13 0
-2124 2 0
-2124 42 0
2124 -2 -42 0
-2125 3 0
-2125 7 0
2125 -3 -7 0
-2126 4 0
-2126 35 0
2126 -4 -35 0
-2127 5 0
-2127 36 0
2127 -5 -36 0
-2128 6 0
-2128 24 0
2128 -6 -24 0
-2129 7 0
-2129 3 0
2129 -7 -3 0
-2130 8 0
-2130 41 0
2130 -8 -41 0
-2131 9 0
-2131 29 0
2131 -9 -29 0
-2132 10 0
-2132 32 0
2132 -10 -32 0
-2133 11 0
-2133 31 0
2133 -11 -31 0
-2134 12 0
-2134 47 0
2134 -12 -47 0
-2135 13 0
-2135 1 0
2135 -13 -1 0
-2136 14 0
-2136 21 0
2136 -14 -21 0
-2137 15 0
-2137 22 0
2137 -15 -22 0
-2138 16 0
-2138 45 0
2138 -16 -45 0
-2139 17 0
-2139 10 0
2139 -17 -10 0
-2140 18 0
-2140 38 0
2140 -18 -38 0
-2141 19 0
-2141 39 0
2141 -19 -39 0
-2142 21 0
-2142 30 0
2142 -21 -30 0
-2143 22 0
-2143 15 0
2143 -22 -15 0
-2144 23 0
-2144 28 0
2144 -23 -28 0
-2145 24 0
-2145 18 0
2145 -24 -18 0
-2146 25 0
-2146 17 0
2146 -25 -17 0
-2147 26 0
-2147 44 0
2147 -26 -44 0
-2148 27 0
-2148 43 0
2148 -27 -43 0
-2149 28 0
-2149 8 0
2149 -28 -8 0
-2150 29 0
-2150 9 0
2150 -29 -9 0
-2151 30 0
-2151 37 0
2151 -30 -37 0
-2152 31 0
-2152 2 0
2152 -31 -2 0
-2153 32 0
-2153 25 0
2153 -32 -25 0
-2154 33 0
-2154 26 0
2154 -33 -26 0
-2155 34 0
-2155 46 0
2155 -34 -46 0
-2156 35 0
-2156 16 0
2156 -35 -16 0
-2157 36 0
-2157 5 0
2157 -36 -5 0
-2158 37 0
-2158 14 0
2158 -37 -14 0
-2159 38 0
-2159 6 0
2159 -38 -6 0
-2160 39 0
-2160 34 0
2160 -39 -34 0
-2161 40 0
-2161 33 0
2161 -40 -33 0
-2162 41 0
-2162 23 0
2162 -41 -23 0
-2163 42 0
-2163 11 0
2163 -42 -11 0
-2164 43 0
-2164 12 0
2164 -43 -12 0
-2165 44 0
-2165 40 0
2165 -44 -40 0
-2166 45 0
-2166 4 0
2166 -45 -4 0
-2167 46 0
-2167 19 0
2167 -46 -19 0
-2168 47 0
-2168 27 0
2168 -47 -27 0
-2123 -2124 0
-2123 2169 0
-2124 2169 0
-2169 2123 2124 0
-2169 -2125 0
-2169 2170 0
-2125 2170 0
-2170 2169 2125 0
-2170 -2126 0
-2170 2171 0
-2126 2171 0
-2171 2170 2126 0
-2171 -2127 0
-2171 2172 0
-2127 2172 0
-2172 2171 2127 0
-2172 -2128 0
-2172 2173 0
-2128 2173 0
-2173 2172 2128 0
-2173 -2129 0
-2173 2174 0
-2129 2174 0
-2174 2173 2129 0
-2174 -2130 0
-2174 2175 0
-2130 2175 0
-2175 2174 2130 0
-2175 -2131 0
-2175 2176 0
-2131 2176 0
-2176 2175 2131 0
-2176 -2132 0
-2176 2177 0
-2132 2177 0
-2177 2176 2132 0
-2177 -2133 0
-2177 2178 0
-2133 2178 0
-2178 2177 2133 0
-2178 -2134 0
-2178 2179 0
-2134 2179 0
-2179 2178 2134 0
-2179 -2135 0
-2179 2180 0
-2135 2180 0
-2180 2179 2135 0
-2180 -2136 0
-2180 2181 0
-2136 2181 0
-2181 2180 2136 0
-2181 -2137 0
-2181 2182 0
-2137 2182 0
-2182 2181 2137 0
-2182 -2138 0
-2182 2183 0
-2138 2183 0
-2183 2182 2138 0
-2183 -2139 0
-2183 2184 0
-2139 2184 0
-2184 2183 2139 0
-2184 -2140 0
-2184 2185 0
-2140 2185 0
-2185 2184 2140 0
-2185 -2141 0
-2185 2186 0
-2141 2186 0
-2186 2185 2141 0
-2186 -2142 0
-2186 2187 0
-2142 2187 0
-2187 2186 2142 0
-2187 -2143 0
-2187 2188 0
-2143 2188 0
-2188 2187 2143 0
-2188 -2144 0
-2188 2189 0
-2144 2189 0
-2189 2188 2144 0
-2189 -2145 0
-2189 2190 0
-2145 2190 0
-2190 2189 2145 0
-2190 -2146 0
-2190 2191 0
-2146 2191 0
-2191 2190 2146 0
-2191 -2147 0
-2191 2192 0
-2147 2192 0
-2192 2191 2147 0
-2192 -2148 0
-2192 2193 0
-2148 2193 0
-2193 2192 2148 0
-2193 -2149 0
-2193 2194 0
-2149 2194 0
-2194 2193 2149 0
-2194 -2150 0
-2194 2195 0
-2150 2195 0
-2195 2194 2150 0
-2195 -2151 0
-2195 2196 0
-2151 2196 0
-2196 2195 2151 0
-2196 -2152 0
-2196 2197 0
-2152 2197 0
-2197 2196 2152 0
-2197 -2153 0
-2197 2198 0
-2153 2198 0
-2198 2197 2153 0
-2198 -2154 0
-2198 2199 0
-2154 2199 0
-2199 2198 2154 0
-2199 -2155 0
-2199 2200 0
-2155 2200 0
-2200 2199 2155 0
-2200 -2156 0
-2200 2201 0
-2156 2201 0
-2201 2200 2156 0
-2201 -2157 0
-2201 2202 0
-2157 2202 0
-2202 2201 2157 0
-2202 -2158 0
-2202 2203 0
-2158 2203 0
-2203 2202 2158 0
-2203 -2159 0
-2203 2204 0
-2159 2204 0
-2204 2203 2159 0
-2204 -2160 0
-2204 2205 0
-2160 2205 0
-2205 2204 2160 0
-2205 -2161 0
-2205 2206 0
-2161 2206 0
-2206 2205 2161 0
-2206 -2162 0
-2206 2207 0
-2162 2207 0
-2207 2206 2162 0
-2207 -2163 0
-2207 2208 0
-2163 2208 0
-2208 2207 2163 0
-2208 -2164 0
-2208 2209 0
-2164 2209 0
-2209 2208 2164 0
-2209 -2165 0
-2209 2210 0
-2165 2210 0
-2210 2209 2165 0
-2210 -2166 0
-2210 2211 0
-2166 2211 0
-2211 2210 2166 0
-2211 -2167 0
-2211 2212 0
-2167 2212 0
-2212 2211 2167 0
-2212 -2168 0
-2212 2213 0
-2168 2213 0
-2213 2212 2168 0
-2214 1 0
-2214 14 0
2214 -1 -14 0
-2215 2 0
-2215 33 0
2215 -2 -33 0
-2216 3 0
-2216 8 0
2216 -3 -8 0
-2217 4 0
-2217 22 0
2217 -4 -22 0
-2218 5 0
-2218 37 0
2218 -5 -37 0
-2219 6 0
-2219 25 0
2219 -6 -25 0
-2220 7 0
-2220 4 0
2220 -7 -4 0
-2221 8 0
-2221 3 0
2221 -8 -3 0
-2222 9 0
-2222 30 0
2222 -9 -30 0
-2223 10 0
-2223 19 0
2223 -10 -19 0
-2224 11 0
-2224 32 0
2224 -11 -32 0
-2225 12 0
-2225 17 0
2225 -12 -17 0
-2226 13 0
-2226 35 0
2226 -13 -35 0
-2227 14 0
-2227 9 0
2227 -14 -9 0
-2228 15 0
-2228 23 0
2228 -15 -23 0
-2229 16 0
-2229 7 0
2229 -16 -7 0
-2230 17 0
-2230 11 0
2230 -17 -11 0
-2231 18 0
-2231 26 0
2231 -18 -26 0
-2232 19 0
-2232 40 0
2232 -19 -40 0
-2233 20 0
-2233 28 0
2233 -20 -28 0
-2234 22 0
-2234 16 0
2234 -22 -16 0
-2235 23 0
-2235 15 0
2235 -23 -15 0
-2236 24 0
-2236 43 0
2236 -24 -43 0
-2237 25 0
-2237 18 0
2237 -25 -18 0
-2238 26 0
-2238 6 0
2238 -26 -6 0
-2239 27 0
-2239 44 0
2239 -27 -44 0
-2240 28 0
-2240 36 0
2240 -28 -36 0
-2241 29 0
-2241 45 0
2241 -29 -45 0
-2242 30 0
-2242 1 0
2242 -30 -1 0
-2243 31 0
-2243 38 0
2243 -31 -38 0
-2244 32 0
-2244 12 0
2244 -32 -12 0
-2245 33 0
-2245 27 0
2245 -33 -27 0
-2246 34 0
-2246 10 0
2246 -34 -10 0
-2247 35 0
-2247 13 0
2247 -35 -13 0
-2248 36 0
-2248 41 0
2248 -36 -41 0
-2249 37 0
-2249 5 0
2249 -37 -5 0
-2250 38 0
-2250 42 0
2250 -38 -42 0
-2251 39 0
-2251 31 0
2251 -39 -31 0
-2252 40 0
-2252 34 0
2252 -40 -34 0
-2253 41 0
-2253 20 0
2253 -41 -20 0
-2254 42 0
-2254 39 0
2254 -42 -39 0
-2255 43 0
-2255 46 0
2255 -43 -46 0
-2256 44 0
-2256 2 0
2256 -44 -2 0
-2257 45 0
-2257 29 0
2257 -45 -29 0
-2258 46 0
-2258 47 0
2258 -46 -47 0
-2259 47 0
-2259 24 0
2259 -47 -24 0
-2214 -2215 0
-2214 2260 0
-2215 2260 0
-2260 2214 2215 0
-2260 -2216 0
-2260 2261 0
-2216 2261 0
-2261 2260 2216 0
-2261 -2217 0
-2261 2262 0
-2217 2262 0
-2262 2261 2217 0
-2262 -2218 0
-2262 2263 0
-2218 2263 0
-2263 2262 2218 0
-2263 -2219 0
-2263 2264 0
-2219 2264 0
-2264 2263 2219 0
-2264 -2220 0
-2264 2265 0
-2220 2265 0
-2265 2264 2220 0
-2265 -2221 0
-2265 2266 0
-2221 2266 0
-2266 2265 2221 0
-2266 -2222 0
-2266 2267 0
-2222 2267 0
-2267 2266 2222 0
-2267 -2223 0
-2267 2268 0
-2223 2268 0
-2268 2267 2223 0
-2268 -2224 0
-2268 2269 0
-2224 2269 0
-2269 2268 2224 0
-2269 -2225 0
-2269 2270 0
-2225 2270 0
-2270 2269 2225 0
-2270 -2226 0
-2270 2271 0
-2226 2271 0
-2271 2270 2226 0
-2271 -2227 0
-2271 2272 0
-2227 2272 0
-2272 2271 2227 0
-2272 -2228 0
-2272 2273 0
-2228 2273 0
-2273 2272 2228 0
-2273 -2229 0
-2273 2274 0
-2229 2274 0
-2274 2273 2229 0
-2274 -2230 0
-2274 2275 0
-2230 2275 0
-2275 2274 2230 0
-2275 -2231 0
-2275 2276 0
-2231 2276 0
-2276 2275 2231 0
-2276 -2232 0
-2276 2277 0
-2232 2277 0
-2277 2276 2232 0
-2277 -2233 0
-2277 2278 0
-2233 2278 0
-2278 2277 2233 0
-2278 -2234 0
-2278 2279 0
-2234 2279 0
-2279 2278 2234 0
-2279 -2235 0
-2279 2280 0
-2235 2280 0
-2280 2279 2235 0
-2280 -2236 0
-2280 2281 0
-2236 2281 0
-2281 2280 2236 0
-2281 -2237 0
-2281 2282 0
-2237 2282 0
-2282 2281 2237 0
-2282 -2238 0
-2282 2283 0
-2238 2283 0
-2283 2282 2238 0
-2283 -2239 0
-2283 2284 0
-2239 2284 0
-2284 2283 2239 0
-2284 -2240 0
-2284 2285 0
-2240 2285 0
-2285 2284 2240 0
-2285 -2241 0
-2285 2286 0
-2241 2286 0
-2286 2285 2241 0
-2286 -2242 0
-2286 2287 0
-2242 2287 0
-2287 2286 2242 0
-2287 -2243 0
-2287 2288 0
-2243 2288 0
-2288 2287 2243 0
-2288 -2244 0
-2288 2289 0
-2244 2289 0
-2289 2288 2244 0
-2289 -2245 0
-2289 2290 0
-2245 2290 0
-2290 2289 2245 0
-2290 -2246 0
-2290 2291 0
-2246 2291 0
-2291 2290 2246 0
-2291 -2247 0
-2291 2292 0
-2247 2292 0
-2292 2291 2247 0
-2292 -2248 0
-2292 2293 0
-2248 2293 0
-2293 2292 2248 0
-2293 -2249 0
-2293 2294 0
-2249 2294 0
-2294 2293 2249 0
-2294 -2250 0
-2294 2295 0
-2250 2295 0
-2295 2294 2250 0
-2295 -2251 0
-2295 2296 0
-2251 2296 0
-2296 2295 2251 0
-2296 -2252 0
-2296 2297 0
-2252 2297 0
-2297 2296 2252 0
-2297 -2253 0
-2297 2298 0
-2253 2298 0
-2298 2297 2253 0
-2298 -2254 0
-2298 2299 0
-2254 2299 0
-2299 2298 2254 0
-2299 -2255 0
-2299 2300 0
-2255 2300 0
-2300 2299 2255 0
-2300 -2256 0
-2300 2301 0
-2256 2301 0
-2301 2300 2256 0
-2301 -2257 0
-2301 2302 0
-2257 2302 0
-2302 2301 2257 0
-2302 -2258 0
-2302 2303 0
-2258 2303 0
-2303 2302 2258 0
-2303 -2259 0
-2303 2304 0
-2259 2304 0
-2304 2303 2259 0
-2305 1 0
-2305 15 0
2305 -1 -15 0
-2306 2 0
-2306 44 0
2306 -2 -44 0
-2307 3 0
-2307 9 0
2307 -3 -9 0
-2308 4 0
-2308 37 0
2308 -4 -37 0
-2309 5 0
-2309 7 0
2309 -5 -7 0
-2310 6 0
-2310 26 0
2310 -6 -26 0
-2311 7 0
-2311 5 0
2311 -7 -5 0
-2312 8 0
-2312 14 0
2312 -8 -14 0
-2313 9 0
-2313 3 0
2313 -9 -3 0
-2314 10 0
-2314 34 0
2314 -10 -34 0
-2315 11 0
-2315 33 0
2315 -11 -33 0
-2316 12 0
-2316 32 0
2316 -12 -32 0
-2317 13 0
-2317 36 0
2317 -13 -36 0
-2318 14 0
-2318 23 0
2318 -14 -23 0
-2319 15 0
-2319 1 0
2319 -15 -1 0
-2320 16 0
-2320 21 0
2320 -16 -21 0
-2321 17 0
-2321 12 0
2321 -17 -12 0
-2322 18 0
-2322 40 0
2322 -18 -40 0
-2323 19 0
-2323 10 0
2323 -19 -10 0
-2324 20 0
-2324 29 0
2324 -20 -29 0
-2325 21 0
-2325 4 0
2325 -21 -4 0
-2326 23 0
-2326 30 0
2326 -23 -30 0
-2327 24 0
-2327 47 0
2327 -24 -47 0
-2328 25 0
-2328 19 0
2328 -25 -19 0
-2329 26 0
-2329 18 0
2329 -26 -18 0
-2330 27 0
-2330 17 0
2330 -27 -17 0
-2331 28 0
-2331 45 0
2331 -28 -45 0
-2332 29 0
-2332 20 0
2332 -29 -20 0
-2333 30 0
-2333 8 0
2333 -30 -8 0
-2334 31 0
-2334 39 0
2334 -31 -39 0
-2335 32 0
-2335 27 0
2335 -32 -27 0
-2336 33 0
-2336 2 0
2336 -33 -2 0
-2337 34 0
-2337 25 0
2337 -34 -25 0
-2338 35 0
-2338 28 0
2338 -35 -28 0
-2339 36 0
-2339 13 0
2339 -36 -13 0
-2340 37 0
-2340 16 0
2340 -37 -16 0
-2341 38 0
-2341 43 0
2341 -38 -43 0
-2342 39 0
-2342 42 0
2342 -39 -42 0
-2343 40 0
-2343 6 0
2343 -40 -6 0
-2344 41 0
-2344 35 0
2344 -41 -35 0
-2345 42 0
-2345 46 0
2345 -42 -46 0
-2346 43 0
-2346 24 0
2346 -43 -24 0
-2347 44 0
-2347 11 0
2347 -44 -11 0
-2348 45 0
-2348 41 0
2348 -45 -41 0
-2349 46 0
-2349 31 0
2349 -46 -31 0
-2350 47 0
-2350 38 0
2350 -47 -38 0
-2305 -2306 0
-2305 2351 0
-2306 2351 0
-2351 2305 2306 0
-2351 -2307 0
-2351 2352 0
-2307 2352 0
-2352 2351 2307 0
-2352 -2308 0
-2352 2353 0
-2308 2353 0
-2353 2352 2308 0
-2353 -2309 0
-2353 2354 0
-2309 2354 0
-2354 2353 2309 0
-2354 -2310 0
-2354 2355 0
-2310 2355 0
-2355 2354 2310 0
-2355 -2311 0
-2355 2356 0
-2311 2356 0
-2356 2355 2311 0
-2356 -2312 0
-2356 2357 0
-2312 2357 0
-2357 2356 2312 0
-2357 -2313 0
-2357 2358 0
-2313 2358 0
-2358 2357 2313 0
-2358 -2314 0
-2358 2359 0
-2314 2359 0
-2359 2358 2314 0
-2359 -2315 0
-2359 2360 0
-2315 2360 0
-2360 2359 2315 0
-2360 -2316 0
-2360 2361 0
-2316 2361 0
-2361 2360 2316 0
-2361 -2317 0
-2361 2362 0
-2317 2362 0
-2362 2361 2317 0
-2362 -2318 0
-2362 2363 0
-2318 2363 0
-2363 2362 2318 0
-2363 -2319 0
-2363 2364 0
-2319 2364 0
-2364 2363 2319 0
-2364 -2320 0
-2364 2365 0
-2320 2365 0
-2365 2364 2320 0
-2365 -2321 0
-2365 2366 0
-2321 2366 0
-2366 2365 2321 0
-2366 -2322 0
-2366 2367 0
-2322 2367 0
-2367 2366 2322 0
-2367 -2323 0
-2367 2368 0
-2323 2368 0
-2368 2367 2323 0
-2368 -2324 0
-2368 2369 0
-2324 2369 0
-2369 2368 2324 0
-2369 -2325 0
-2369 2370 0
-2325 2370 0
-2370 2369 2325 0
-2370 -2326 0
-2370 2371 0
-2326 2371 0
-2371 2370 2326 0
-2371 -2327 0
-2371 2372 0
-2327 2372 0
-2372 2371 2327 0
-2372 -2328 0
-2372 2373 0
-2328 2373 0
-2373 2372 2328 0
-2373 -2329 0
-2373 2374 0
-2329 2374 0
-2374 2373 2329 0
-2374 -2330 0
-2374 2375 0
-2330 2375 0
-2375 2374 2330 0
-2375 -2331 0
-2375 2376 0
-2331 2376 0
-2376 2375 2331 0
-2376 -2332 0
-2376 2377 0
-2332 2377 0
-2377 2376 2332 0
-2377 -2333 0
-2377 2378 0
-2333 2378 0
-2378 2377 2333 0
-2378 -2334 0
-2378 2379 0
-2334 2379 0
-2379 2378 2334 0
-2379 -2335 0
-2379 2380 0
-2335 2380 0
-2380 2379 2335 0
-2380 -2336 0
-2380 2381 0
-2336 2381 0
-2381 2380 2336 0
-2381 -2337 0
-2381 2382 0
-2337 2382 0
-2382 2381 2337 0
-2382 -2338 0
-2382 2383 0
-2338 2383 0
-2383 2382 2338 0
-2383 -2339 0
-2383 2384 0
-2339 2384 0
-2384 2383 2339 0
-2384 -2340 0
-2384 2385 0
-2340 2385 0
-2385 2384 2340 0
-2385 -2341 0
-2385 2386 0
-2341 2386 0
-2386 2385 2341 0
-2386 -2342 0
-2386 2387 0
-2342 2387 0
-2387 2386 2342 0
-2387 -2343 0
-2387 2388 0
-2343 2388 0
-2388 2387 2343 0
-2388 -2344 0
-2388 2389 0
-2344 2389 0
-2389 2388 2344 0
-2389 -2345 0
-2389 2390 0
-2345 2390 0
-2390 2389 2345 0
-2390 -2346 0
-2390 2391 0
-2346 2391 0
-2391 2390 2346 0
-2391 -2347 0
-2391 2392 0
-2347 2392 0
-2392 2391 2347 0
-2392 -2348 0
-2392 2393 0
-2348 2393 0
-2393 2392 2348 0
-2393 -2349 0
-2393 2394 0
-2349 2394 0
-2394 2393 2349 0
-2394 -2350 0
-2394 2395 0
-2350 2395 0
-2395 2394 2350 0
-2396 1 0
-2396 16 0
2396 -1 -16 0
-2397 2 0
-2397 6 0
2397 -2 -6 0
-2398 3 0
-2398 45 0
2398 -3 -45 0
-2399 4 0
-2399 1 0
2399 -4 -1 0
-2400 5 0
-2400 8 0
2400 -5 -8 0
-2401 6 0
-2401 27 0
2401 -6 -27 0
-2402 7 0
-2402 41 0
2402 -7 -41 0
-2403 8 0
-2403 5 0
2403 -8 -5 0
-2404 9 0
-2404 4 0
2404 -9 -4 0
-2405 10 0
-2405 31 0
2405 -10 -31 0
-2406 11 0
-2406 34 0
2406 -11 -34 0
-2407 12 0
-2407 19 0
2407 -12 -19 0
-2408 13 0
-2408 37 0
2408 -13 -37 0
-2409 14 0
-2409 20 0
2409 -14 -20 0
-2410 15 0
-2410 35 0
2410 -15 -35 0
-2411 16 0
-2411 9 0
2411 -16 -9 0
-2412 17 0
-2412 46 0
2412 -17 -46 0
-2413 18 0
-2413 2 0
2413 -18 -2 0
-2414 19 0
-2414 11 0
2414 -19 -11 0
-2415 20 0
-2415 30 0
2415 -20 -30 0
-2416 21 0
-2416 29 0
2416 -21 -29 0
-2417 22 0
-2417 28 0
2417 -22 -28 0
-2418 24 0
-2418 17 0
2418 -24 -17 0
-2419 25 0
-2419 47 0
2419 -25 -47 0
-2420 26 0
-2420 43 0
2420 -26 -43 0
-2421 27 0
-2421 18 0
2421 -27 -18 0
-2422 28 0
-2422 7 0
2422 -28 -7 0
-2423 29 0
-2423 21 0
2423 -29 -21 0
-2424 30 0
-2424 36 0
2424 -30 -36 0
-2425 31 0
-2425 40 0
2425 -31 -40 0
-2426 32 0
-2426 24 0
2426 -32 -24 0
-2427 33 0
-2427 38 0
2427 -33 -38 0
-2428 34 0
-2428 12 0
2428 -34 -12 0
-2429 35 0
-2429 15 0
2429 -35 -15 0
-2430 36 0
-2430 14 0
2430 -36 -14 0
-2431 37 0
-2431 13 0
2431 -37 -13 0
-2432 38 0
-2432 44 0
2432 -38 -44 0
-2433 39 0
-2433 33 0
2433 -39 -33 0
-2434 40 0
-2434 42 0
2434 -40 -42 0
-2435 41 0
-2435 22 0
2435 -41 -22 0
-2436 42 0
-2436 10 0
2436 -42 -10 0
-2437 43 0
-2437 25 0
2437 -43 -25 0
-2438 44 0
-2438 39 0
2438 -44 -39 0
-2439 45 0
-2439 3 0
2439 -45 -3 0
-2440 46 0
-2440 32 0
2440 -46 -32 0
-2441 47 0
-2441 26 0
2441 -47 -26 0
-2396 -2397 0
-2396 2442 0
-2397 2442 0
-2442 2396 2397 0
-2442 -2398 0
-2442 2443 0
-2398 2443 0
-2443 2442 2398 0
-2443 -2399 0
-2443 2444 0
-2399 2444 0
-2444 2443 2399 0
-2444 -2400 0
-2444 2445 0
-2400 2445 0
-2445 2444 2400 0
-2445 -2401 0
-2445 2446 0
-2401 2446 0
-2446 2445 2401 0
-2446 -2402 0
-2446 2447 0
-2402 2447 0
-2447 2446 2402 0
-2447 -2403 0
-2447 2448 0
-2403 2448 0
-2448 2447 2403 0
-2448 -2404 0
-2448 2449 0
-2404 2449 0
-2449 2448 2404 0
-2449 -2405 0
-2449 2450 0
-2405 2450 0
-2450 2449 2405 0
-2450 -2406 0
-2450 2451 0
-2406 2451 0
-2451 2450 2406 0
-2451 -2407 0
-2451 2452 0
-2407 2452 0
-2452 2451 2407 0
-2452 -2408 0
-2452 2453 0
-2408 2453 0
-2453 2452 2408 0
-2453 -2409 0
-2453 2454 0
-2409 2454 0
-2454 2453 2409 0
-2454 -2410 0
-2454 2455 0
-2410 2455 0
-2455 2454 2410 0
-2455 -2411 0
-2455 2456 0
-2411 2456 0
-2456 2455 2411 0
-2456 -2412 0
-2456 2457 0
-2412 2457 0
-2457 2456 2412 0
-2457 -2413 0
-2457 2458 0
-2413 2458 0
-2458 2457 2413 0
-2458 -2414 0
-2458 2459 0
-2414 2459 0
-2459 2458 2414 0
-2459 -2415 0
-2459 2460 0
-2415 2460 0
-2460 2459 2415 0
-2460 -2416 0
-2460 2461 0
-2416 2461 0
-2461 2460 2416 0
-2461 -2417 0
-2461 2462 0
-2417 2462 0
-2462 2461 2417 0
-2462 -2418 0
-2462 2463 0
-2418 2463 0
-2463 2462 2418 0
-2463 -2419 0
-2463 2464 0
-2419 2464 0
-2464 2463 2419 0
-2464 -2420 0
-2464 2465 0
-2420 2465 0
-2465 2464 2420 0
-2465 -2421 0
-2465 2466 0
-2421 2466 0
-2466 2465 2421 0
-2466 -2422 0
-2466 2467 0
-2422 2467 0
-2467 2466 2422 0
-2467 -2423 0
-2467 2468 0
-2423 2468 0
-2468 2467 2423 0
-2468 -2424 0
-2468 2469 0
-2424 2469 0
-2469 2468 2424 0
-2469 -2425 0
-2469 2470 0
-2425 2470 0
-2470 2469 2425 0
-2470 -2426 0
-2470 2471 0
-2426 2471 0
-2471 2470 2426 0
-2471 -2427 0
-2471 2472 0
-2427 2472 0
-2472 2471 2427 0
-2472 -2428 0
-2472 2473 0
-2428 2473 0
-2473 2472 2428 0
-2473 -2429 0
-2473 2474 0
-2429 2474 0
-2474 2473 2429 0
-2474 -2430 0
-2474 2475 0
-2430 2475 0
-2475 2474 2430 0
-2475 -2431 0
-2475 2476 0
-2431 2476 0
-2476 2475 2431 0
-2476 -2432 0
-2476 2477 0
-2432 2477 0
-2477 2476 2432 0
-2477 -2433 0
-2477 2478 0
-2433 2478 0
-2478 2477 2433 0
-2478 -2434 0
-2478 2479 0
-2434 2479 0
-2479 2478 2434 0
-2479 -2435 0
-2479 2480 0
-2435 2480 0
-2480 2479 2435 0
-2480 -2436 0
-2480 2481 0
-2436 2481 0
-2481 2480 2436 0
-2481 -2437 0
-2481 2482 0
-2437 2482 0
-2482 2481 2437 0
-2482 -2438 0
-2482 2483 0
-2438 2483 0
-2483 2482 2438 0
-2483 -2439 0
-2483 2484 0
-2439 2484 0
-2484 2483 2439 0
-2484 -2440 0
-2484 2485 0
-2440 2485 0
-2485 2484 2440 0
-2485 -2441 0
-2485 2486 0
-2441 2486 0
-2486 2485 2441 0
-2487 1 0
-2487 43 0
2487 -1 -43 0
-2488 2 0
-2488 13 0
2488 -2 -13 0
-2489 3 0
-2489 10 0
2489 -3 -10 0
-2490 4 0
-2490 38 0
2490 -4 -38 0
-2491 5 0
-2491 39 0
2491 -5 -39 0
-2492 6 0
-2492 35 0
2492 -6 -35 0
-2493 7 0
-2493 33 0
2493 -7 -33 0
-2494 8 0
-2494 42 0
2494 -8 -42 0
-2495 9 0
-2495 31 0
2495 -9 -31 0
-2496 10 0
-2496 3 0
2496 -10 -3 0
-2497 11 0
-2497 41 0
2497 -11 -41 0
-2498 12 0
-2498 29 0
2498 -12 -29 0
-2499 13 0
-2499 2 0
2499 -13 -2 0
-2500 14 0
-2500 25 0
2500 -14 -25 0
-2501 15 0
-2501 26 0
2501 -15 -26 0
-2502 16 0
-2502 46 0
2502 -16 -46 0
-2503 17 0
-2503 21 0
2503 -17 -21 0
-2504 18 0
-2504 36 0
2504 -18 -36 0
-2505 19 0
-2505 45 0
2505 -19 -45 0
-2506 20 0
-2506 19 0
2506 -20 -19 0
-2507 21 0
-2507 32 0
2507 -21 -32 0
-2508 22 0
-2508 17 0
2508 -22 -17 0
-2509 23 0
-2509 47 0
2509 -23 -47 0
-2510 25 0
-2510 30 0
2510 -25 -30 0
-2511 26 0
-2511 15 0
2511 -26 -15 0
-2512 27 0
-2512 28 0
2512 -27 -28 0
-2513 28 0
-2513 11 0
2513 -28 -11 0
-2514 29 0
-2514 12 0
2514 -29 -12 0
-2515 30 0
-2515 40 0
2515 -30 -40 0
-2516 31 0
-2516 8 0
2516 -31 -8 0
-2517 32 0
-2517 22 0
2517 -32 -22 0
-2518 33 0
-2518 37 0
2518 -33 -37 0
-2519 34 0
-2519 20 0
2519 -34 -20 0
-2520 35 0
-2520 18 0
2520 -35 -18 0
-2521 36 0
-2521 6 0
2521 -36 -6 0
-2522 37 0
-2522 44 0
2522 -37 -44 0
-2523 38 0
-2523 16 0
2523 -38 -16 0
-2524 39 0
-2524 5 0
2524 -39 -5 0
-2525 40 0
-2525 14 0
2525 -40 -14 0
-2526 41 0
-2526 27 0
2526 -41 -27 0
-2527 42 0
-2527 9 0
2527 -42 -9 0
-2528 43 0
-2528 23 0
2528 -43 -23 0
-2529 44 0
-2529 7 0
2529 -44 -7 0
-2530 45 0
-2530 34 0
2530 -45 -34 0
-2531 46 0
-2531 4 0
2531 -46 -4 0
-2532 47 0
-2532 1 0
2532 -47 -1 0
-2487 -2488 0
-2487 2533 0
-2488 2533 0
-2533 2487 2488 0
-2533 -2489 0
-2533 2534 0
-2489 2534 0
-2534 2533 2489 0
-2534 -2490 0
-2534 2535 0
-2490 2535 0
-2535 2534 2490 0
-2535 -2491 0
-2535 2536 0
-2491 2536 0
-2536 2535 2491 0
-2536 -2492 0
-2536 2537 0
-2492 2537 0
-2537 2536 2492 0
-2537 -2493 0
-2537 2538 0
-2493 2538 0
-2538 2537 2493 0
-2538 -2494 0
-2538 2539 0
-2494 2539 0
-2539 2538 2494 0
-2539 -2495 0
-2539 2540 0
-2495 2540 0
-2540 2539 2495 0
-2540 -2496 0
-2540 2541 0
-2496 2541 0
-2541 2540 2496 0
-2541 -2497 0
-2541 2542 0
-2497 2542 0
-2542 2541 2497 0
-2542 -2498 0
-2542 2543 0
-2498 2543 0
-2543 2542 2498 0
-2543 -2499 0
-2543 2544 0
-2499 2544 0
-2544 2543 2499 0
-2544 -2500 0
-2544 2545 0
-2500 2545 0
-2545 2544 2500 0
-2545 -2501 0
-2545 2546 0
-2501 2546 0
-2546 2545 2501 0
-2546 -2502 0
-2546 2547 0
-2502 2547 0
-2547 2546 2502 0
-2547 -2503 0
-2547 2548 0
-2503 2548 0
-2548 2547 2503 0
-2548 -2504 0
-2548 2549 0
-2504 2549 0
-2549 2548 2504 0
-2549 -2505 0
-2549 2550 0
-2505 2550 0
-2550 2549 2505 0
-2550 -2506 0
-2550 2551 0
-2506 2551 0
-2551 2550 2506 0
-2551 -2507 0
-2551 2552 0
-2507 2552 0
-2552 2551 2507 0
-2552 -2508 0
-2552 2553 0
-2508 2553 0
-2553 2552 2508 0
-2553 -2509 0
-2553 2554 0
-2509 2554 0
-2554 2553 2509 0
-2554 -2510 0
-2554 2555 0
-2510 2555 0
-2555 2554 2510 0
-2555 -2511 0
-2555 2556 0
-2511 2556 0
-2556 2555 2511 0
-2556 -2512 0
-2556 2557 0
-2512 2557 0
-2557 2556 2512 0
-2557 -2513 0
-2557 2558 0
-2513 2558 0
-2558 2557 2513 0
-2558 -2514 0
-2558 2559 0
-2514 2559 0
-2559 2558 2514 0
-2559 -2515 0
-2559 2560 0
-2515 2560 0
-2560 2559 2515 0
-2560 -2516 0
-2560 2561 0
-2516 2561 0
-2561 2560 2516 0
-2561 -2517 0
-2561 2562 0
-2517 2562 0
-2562 2561 2517 0
-2562 -2518 0
-2562 2563 0
-2518 2563 0
-2563 2562 2518 0
-2563 -2519 0
-2563 2564 0
-2519 2564 0
-2564 2563 2519 0
-2564 -2520 0
-2564 2565 0
-2520 2565 0
-2565 2564 2520 0
-2565 -2521 0
-2565 2566 0
-2521 2566 0
-2566 2565 2521 0
-2566 -2522 0
-2566 2567 0
-2522 2567 0
-2567 2566 2522 0
-2567 -2523 0
-2567 2568 0
-2523 2568 0
-2568 2567 2523 0
-2568 -2524 0
-2568 2569 0
-2524 2569 0
-2569 2568 2524 0
-2569 -2525 0
-2569 2570 0
-2525 2570 0
-2570 2569 2525 0
-2570 -2526 0
-2570 2571 0
-2526 2571 0
-2571 2570 2526 0
-2571 -2527 0
-2571 2572 0
-2527 2572 0
-2572 2571 2527 0
-2572 -2528 0
-2572 2573 0
-2528 2573 0
-2573 2572 2528 0
-2573 -2529 0
-2573 2574 0
-2529 2574 0
-2574 2573 2529 0
-2574 -2530 0
-2574 2575 0
-2530 2575 0
-2575 2574 2530 0
-2575 -2531 0
-2575 2576 0
-2531 2576 0
-2576 2575 2531 0
-2576 -2532 0
-2576 2577 0
-2532 2577 0
-2577 2576 2532 0
-2578 1 0
-2578 44 0
2578 -1 -44 0
-2579 2 0
-2579 14 0
2579 -2 -14 0
-2580 3 0
-2580 11 0
2580 -3 -11 0
-2581 4 0
-2581 26 0
2581 -4 -26 0
-2582 5 0
-2582 40 0
2582 -5 -40 0
-2583 6 0
-2583 22 0
2583 -6 -22 0
-2584 7 0
-2584 34 0
2584 -7 -34 0
-2585 8 0
-2585 33 0
2585 -8 -33 0
-2586 9 0
-2586 32 0
2586 -9 -32 0
-2587 10 0
-2587 4 0
2587 -10 -4 0
-2588 11 0
-2588 3 0
2588 -11 -3 0
-2589 12 0
-2589 30 0
2589 -12 -30 0
-2590 13 0
-2590 38 0
2590 -13 -38 0
-2591 14 0
-2591 12 0
2591 -14 -12 0
-2592 15 0
-2592 27 0
2592 -15 -27 0
-2593 16 0
-2593 10 0
2593 -16 -10 0
-2594 17 0
-2594 9 0
2594 -17 -9 0
-2595 18 0
-2595 37 0
2595 -18 -37 0
-2596 19 0
-2596 7 0
2596 -19 -7 0
-2597 20 0
-2597 47 0
2597 -20 -47 0
-2598 21 0
-2598 19 0
2598 -21 -19 0
-2599 22 0
-2599 18 0
2599 -22 -18 0
-2600 23 0
-2600 17 0
2600 -23 -17 0
-2601 24 0
-2601 28 0
2601 -24 -28 0
-2602 26 0
-2602 16 0
2602 -26 -16 0
-2603 27 0
-2603 15 0
2603 -27 -15 0
-2604 28 0
-2604 39 0
2604 -28 -39 0
-2605 29 0
-2605 46 0
2605 -29 -46 0
-2606 30 0
-2606 2 0
2606 -30 -2 0
-2607 31 0
-2607 36 0
2607 -31 -36 0
-2608 32 0
-2608 23 0
2608 -32 -23 0
-2609 33 0
-2609 1 0
2609 -33 -1 0
-2610 34 0
-2610 21 0
2610 -34 -21 0
-2611 35 0
-2611 43 0
2611 -35 -43 0
-2612 36 0
-2612 42 0
2612 -36 -42 0
-2613 37 0
-2613 6 0
2613 -37 -6 0
-2614 38 0
-2614 13 0
2614 -38 -13 0
-2615 39 0
-2615 41 0
2615 -39 -41 0
-2616 40 0
-2616 5 0
2616 -40 -5 0
-2617 41 0
-2617 24 0
2617 -41 -24 0
-2618 42 0
-2618 45 0
2618 -42 -45 0
-2619 43 0
-2619 20 0
2619 -43 -20 0
-2620 44 0
-2620 8 0
2620 -44 -8 0
-2621 45 0
-2621 31 0
2621 -45 -31 0
-2622 46 0
-2622 29 0
2622 -46 -29 0
-2623 47 0
-2623 35 0
2623 -47 -35 0
-2578 -2579 0
-2578 2624 0
-2579 2624 0
-2624 2578 2579 0
-2624 -2580 0
-2624 2625 0
-2580 2625 0
-2625 2624 2580 0
-2625 -2581 0
-2625 2626 0
-2581 2626 0
-2626 2625 2581 0
-2626 -2582 0
-2626 2627 0
-2582 2627 0
-2627 2626 2582 0
-2627 -2583 0
-2627 2628 0
-2583 2628 0
-2628 2627 2583 0
-2628 -2584 0
-2628 2629 0
-2584 2629 0
-2629 2628 2584 0
-2629 -2585 0
-2629 2630 0
-2585 2630 0
-2630 2629 2585 0
-2630 -2586 0
-2630 2631 0
-2586 2631 0
-2631 2630 2586 0
-2631 -2587 0
-2631 2632 0
-2587 2632 0
-2632 2631 2587 0
-2632 -2588 0
-2632 2633 0
-2588 2633 0
-2633 2632 2588 0
-2633 -2589 0
-2633 2634 0
-2589 2634 0
-2634 2633 2589 0
-2634 -2590 0
-2634 2635 0
-2590 2635 0
-2635 2634 2590 0
-2635 -2591 0
-2635 2636 0
-2591 2636 0
-2636 2635 2591 0
-2636 -2592 0
-2636 2637 0
-2592 2637 0
-2637 2636 2592 0
-2637 -2593 0
-2637 2638 0
-2593 2638 0
-2638 2637 2593 0
-2638 -2594 0
-2638 2639 0
-2594 2639 0
-2639 2638 2594 0
-2639 -2595 0
-2639 2640 0
-2595 2640 0
-2640 2639 2595 0
-2640 -2596 0
-2640 2641 0
-2596 2641 0
-2641 2640 2596 0
-2641 -2597 0
-2641 2642 0
-2597 2642 0
-2642 2641 2597 0
-2642 -2598 0
-2642 2643 0
-2598 2643 0
-2643 2642 2598 0
-2643 -2599 0
-2643 2644 0
-2599 2644 0
-2644 2643 2599 0
-2644 -2600 0
-2644 2645 0
-2600 2645 0
-2645 2644 2600 0
-2645 -2601 0
-2645 2646 0
-2601 2646 0
-2646 2645 2601 0
-2646 -2602 0
-2646 2647 0
-2602 2647 0
-2647 2646 2602 0
-2647 -2603 0
-2647 2648 0
-2603 2648 0
-2648 2647 2603 0
-2648 -2604 0
-2648 2649 0
-2604 2649 0
-2649 2648 2604 0
-2649 -2605 0
-2649 2650 0
-2605 2650 0
-2650 2649 2605 0
-2650 -2606 0
-2650 2651 0
-2606 2651 0
-2651 2650 2606 0
-2651 -2607 0
-2651 2652 0
-2607 2652 0
-2652 2651 2607 0
-2652 -2608 0
-2652 2653 0
-2608 2653 0
-2653 2652 2608 0
-2653 -2609 0
-2653 2654 0
-2609 2654 0
-2654 2653 2609 0
-2654 -2610 0
-2654 2655 0
-2610 2655 0
-2655 2654 2610 0
-2655 -2611 0
-2655 2656 0
-2611 2656 0
-2656 2655 2611 0
-2656 -2612 0
-2656 2657 0
-2612 2657 0
-2657 2656 2612 0
-2657 -2613 0
-2657 2658 0
-2613 2658 0
-2658 2657 2613 0
-2658 -2614 0
-2658 2659 0
-2614 2659 0
-2659 2658 2614 0
-2659 -2615 0
-2659 2660 0
-2615 2660 0
-2660 2659 2615 0
-2660 -2616 0
-2660 2661 0
-2616 2661 0
-2661 2660 2616 0
-2661 -2617 0
-2661 2662 0
-2617 2662 0
-2662 2661 2617 0
-2662 -2618 0
-2662 2663 0
-2618 2663 0
-2663 2662 2618 0
-2663 -2619 0
-2663 2664 0
-2619 2664 0
-2664 2663 2619 0
-2664 -2620 0
-2664 2665 0
-2620 2665 0
-2665 2664 2620 0
-2665 -2621 0
-2665 2666 0
-2621 2666 0
-2666 2665 2621 0
-2666 -2622 0
-2666 2667 0
-2622 2667 0
-2667 2666 2622 0
-2667 -2623 0
-2667 2668 0
-2623 2668 0
-2668 2667 2623 0
-2669 1 0
-2669 17 0
2669 -1 -17 0
-2670 2 0
-2670 15 0
2670 -2 -15 0
-2671 3 0
-2671 12 0
2671 -3 -12 0
-2672 4 0
-2672 40 0
2672 -4 -40 0
-2673 5 0
-2673 10 0
2673 -5 -10 0
-2674 6 0
-2674 37 0
2674 -6 -37 0
-2675 7 0
-2675 6 0
2675 -7 -6 0
-2676 8 0
-2676 44 0
2676 -8 -44 0
-2677 9 0
-2677 33 0
2677 -9 -33 0
-2678 10 0
-2678 5 0
2678 -10 -5 0
-2679 11 0
-2679 14 0
2679 -11 -14 0
-2680 12 0
-2680 3 0
2680 -12 -3 0
-2681 13 0
-2681 39 0
2681 -13 -39 0
-2682 14 0
-2682 27 0
2682 -14 -27 0
-2683 15 0
-2683 2 0
2683 -15 -2 0
-2684 16 0
-2684 25 0
2684 -16 -25 0
-2685 17 0
-2685 23 0
2685 -17 -23 0
-2686 18 0
-2686 7 0
2686 -18 -7 0
-2687 19 0
-2687 21 0
2687 -19 -21 0
-2688 20 0
-2688 31 0
2688 -20 -31 0
-2689 21 0
-2689 34 0
2689 -21 -34 0
-2690 22 0
-2690 19 0
2690 -22 -19 0
-2691 23 0
-2691 32 0
2691 -23 -32 0
-2692 24 0
-2692 29 0
2692 -24 -29 0
-2693 25 0
-2693 4 0
2693 -25 -4 0
-2694 27 0
-2694 30 0
2694 -27 -30 0
-2695 28 0
-2695 46 0
2695 -28 -46 0
-2696 29 0
-2696 24 0
2696 -29 -24 0
-2697 30 0
-2697 11 0
2697 -30 -11 0
-2698 31 0
-2698 45 0
2698 -31 -45 0
-2699 32 0
-2699 1 0
2699 -32 -1 0
-2700 33 0
-2700 8 0
2700 -33 -8 0
-2701 34 0
-2701 22 0
2701 -34 -22 0
-2702 35 0
-2702 47 0
2702 -35 -47 0
-2703 36 0
-2703 43 0
2703 -36 -43 0
-2704 37 0
-2704 18 0
2704 -37 -18 0
-2705 38 0
-2705 28 0
2705 -38 -28 0
-2706 39 0
-2706 13 0
2706 -39 -13 0
-2707 40 0
-2707 16 0
2707 -40 -16 0
-2708 41 0
-2708 38 0
2708 -41 -38 0
-2709 42 0
-2709 20 0
2709 -42 -20 0
-2710 43 0
-2710 35 0
2710 -43 -35 0
-2711 44 0
-2711 9 0
2711 -44 -9 0
-2712 45 0
-2712 42 0
2712 -45 -42 0
-2713 46 0
-2713 41 0
2713 -46 -41 0
-2714 47 0
-2714 36 0
2714 -47 -36 0
-2669 -2670 0
-2669 2715 0
-2670 2715 0
-2715 2669 2670 0
-2715 -2671 0
-2715 2716 0
-2671 2716 0
-2716 2715 2671 0
-2716 -2672 0
-2716 2717 0
-2672 2717 0
-2717 2716 2672 0
-2717 -2673 0
-2717 2718 0
-2673 2718 0
-2718 2717 2673 0
-2718 -2674 0
-2718 2719 0
-2674 2719 0
-2719 2718 2674 0
-2719 -2675 0
-2719 2720 0
-2675 2720 0
-2720 2719 2675 0
-2720 -2676 0
-2720 2721 0
-2676 2721 0
-2721 2720 2676 0
-2721 -2677 0
-2721 2722 0
-2677 2722 0
-2722 2721 2677 0
-2722 -2678 0
-2722 2723 0
-2678 2723 0
-2723 2722 2678 0
-2723 -2679 0
-2723 2724 0
-2679 2724 0
-2724 2723 2679 0
-2724 -2680 0
-2724 2725 0
-2680 2725 0
-2725 2724 2680 0
-2725 -2681 0
-2725 2726 0
-2681 2726 0
-2726 2725 2681 0
-2726 -2682 0
-2726 2727 0
-2682 2727 0
-2727 2726 2682 0
-2727 -2683 0
-2727 2728 0
-2683 2728 0
-2728 2727 2683 0
-2728 -2684 0
-2728 2729 0
-2684 2729 0
-2729 2728 2684 0
-2729 -2685 0
-2729 2730 0
-2685 2730 0
-2730 2729 2685 0
-2730 -2686 0
-2730 2731 0
-2686 2731 0
-2731 2730 2686 0
-2731 -2687 0
-2731 2732 0
-2687 2732 0
-2732 2731 2687 0
-2732 -2688 0
-2732 2733 0
-2688 2733 0
-2733 2732 2688 0
-2733 -2689 0
-2733 2734 0
-2689 2734 0
-2734 2733 2689 0
-2734 -2690 0
-2734 2735 0
-2690 2735 0
-2735 2734 2690 0
-2735 -2691 0
-2735 2736 0
-2691 2736 0
-2736 2735 2691 0
-2736 -2692 0
-2736 2737 0
-2692 2737 0
-2737 2736 2692 0
-2737 -2693 0
-2737 2738 0
-2693 2738 0
-2738 2737 2693 0
-2738 -2694 0
-2738 2739 0
-2694 2739 0
-2739 2738 2694 0
-2739 -2695 0
-2739 2740 0
-2695 2740 0
-2740 2739 2695 0
-2740 -2696 0
-2740 2741 0
-2696 2741 0
-2741 2740 2696 0
-2741 -2697 0
-2741 2742 0
-2697 2742 0
-2742 2741 2697 0
-2742 -2698 0
-2742 2743 0
-2698 2743 0
-2743 2742 2698 0
-2743 -2699 0
-2743 2744 0
-2699 2744 0
-2744 2743 2699 0
-2744 -2700 0
-2744 2745 0
-2700 2745 0
-2745 2744 2700 0
-2745 -2701 0
-2745 2746 0
-2701 2746 0
-2746 2745 2701 0
-2746 -2702 0
-2746 2747 0
-2702 2747 0
-2747 2746 2702 0
-2747 -2703 0
-2747 2748 0
-2703 2748 0
-2748 2747 2703 0
-2748 -2704 0
-2748 2749 0
-2704 2749 0
-2749 2748 2704 0
-2749 -2705 0
-2749 2750 0
-2705 2750 0
-2750 2749 2705 0
-2750 -2706 0
-2750 2751 0
-2706 2751 0
-2751 2750 2706 0
-2751 -2707 0
-2751 2752 0
-2707 2752 0
-2752 2751 2707 0
-2752 -2708 0
-2752 2753 0
-2708 2753 0
-2753 2752 2708 0
-2753 -2709 0
-2753 2754 0
-2709 2754 0
-2754 2753 2709 0
-2754 -2710 0
-2754 2755 0
-2710 2755 0
-2755 2754 2710 0
-2755 -2711 0
-2755 2756 0
-2711 2756 0
-2756 2755 2711 0
-2756 -2712 0
-2756 2757 0
-2712 2757 0
-2757 2756 2712 0
-2757 -2713 0
-2757 2758 0
-2713 2758 0
-2758 2757 2713 0
-2758 -2714 0
-2758 2759 0
-2714 2759 0
-2759 2758 2714 0
-2760 1 0
-2760 18 0
2760 -1 -18 0
-2761 2 0
-2761 16 0
2761 -2 -16 0
-2762 3 0
-2762 46 0
2762 -3 -46 0
-2763 4 0
-2763 2 0
2763 -4 -2 0
-2764 5 0
-2764 11 0
2764 -5 -11 0
-2765 6 0
-2765 1 0
2765 -6 -1 0
-2766 7 0
-2766 42 0
2766 -7 -42 0
-2767 8 0
-2767 6 0
2767 -8 -6 0
-2768 9 0
-2768 34 0
2768 -9 -34 0
-2769 10 0
-2769 41 0
2769 -10 -41 0
-2770 11 0
-2770 5 0
2770 -11 -5 0
-2771 12 0
-2771 4 0
2771 -12 -4 0
-2772 13 0
-2772 40 0
2772 -13 -40 0
-2773 14 0
-2773 24 0
2773 -14 -24 0
-2774 15 0
-2774 38 0
2774 -15 -38 0
-2775 16 0
-2775 12 0
2775 -16 -12 0
-2776 17 0
-2776 20 0
2776 -17 -20 0
-2777 18 0
-2777 8 0
2777 -18 -8 0
-2778 19 0
-2778 9 0
2778 -19 -9 0
-2779 20 0
-2779 32 0
2779 -20 -32 0
-2780 21 0
-2780 31 0
2780 -21 -31 0
-2781 22 0
-2781 47 0
2781 -22 -47 0
-2782 23 0
-2782 19 0
2782 -23 -19 0
-2783 24 0
-2783 30 0
2783 -24 -30 0
-2784 25 0
-2784 29 0
2784 -25 -29 0
-2785 26 0
-2785 28 0
2785 -26 -28 0
-2786 28 0
-2786 10 0
2786 -28 -10 0
-2787 29 0
-2787 25 0
2787 -29 -25 0
-2788 30 0
-2788 39 0
2788 -30 -39 0
-2789 31 0
-2789 7 0
2789 -31 -7 0
-2790 32 0
-2790 35 0
2790 -32 -35 0
-2791 33 0
-2791 36 0
2791 -33 -36 0
-2792 34 0
-2792 23 0
2792 -34 -23 0
-2793 35 0
-2793 17 0
2793 -35 -17 0
-2794 36 0
-2794 44 0
2794 -36 -44 0
-2795 37 0
-2795 43 0
2795 -37 -43 0
-2796 38 0
-2796 15 0
2796 -38 -15 0
-2797 39 0
-2797 14 0
2797 -39 -14 0
-2798 40 0
-2798 13 0
2798 -40 -13 0
-2799 41 0
-2799 26 0
2799 -41 -26 0
-2800 42 0
-2800 21 0
2800 -42 -21 0
-2801 43 0
-2801 22 0
2801 -43 -22 0
-2802 44 0
-2802 45 0
2802 -44 -45 0
-2803 45 0
-2803 33 0
2803 -45 -33 0
-2804 46 0
-2804 3 0
2804 -46 -3 0
-2805 47 0
-2805 37 0
2805 -47 -37 0
-2760 -2761 0
-2760 2806 0
-2761 2806 0
-2806 2760 2761 0
-2806 -2762 0
-2806 2807 0
-2762 2807 0
-2807 2806 2762 0
-2807 -2763 0
-2807 2808 0
-2763 2808 0
-2808 2807 2763 0
-2808 -2764 0
-2808 2809 0
-2764 2809 0
-2809 2808 2764 0
-2809 -2765 0
-2809 2810 0
-2765 2810 0
-2810 2809 2765 0
-2810 -2766 0
-2810 2811 0
-2766 2811 0
-2811 2810 2766 0
-2811 -2767 0
-2811 2812 0
-2767 2812 0
-2812 2811 2767 0
-2812 -2768 0
-2812 2813 0
-2768 2813 0
-2813 2812 2768 0
-2813 -2769 0
-2813 2814 0
-2769 2814 0
-2814 2813 2769 0
-2814 -2770 0
-2814 2815 0
-2770 2815 0
-2815 2814 2770 0
-2815 -2771 0
-2815 2816 0
-2771 2816 0
-2816 2815 2771 0
-2816 -2772 0
-2816 2817 0
-2772 2817 0
-2817 2816 2772 0
-2817 -2773 0
-2817 2818 0
-2773 2818 0
-2818 2817 2773 0
-2818 -2774 0
-2818 2819 0
-2774 2819 0
-2819 2818 2774 0
-2819 -2775 0
-2819 2820 0
-2775 2820 0
-2820 2819 2775 0
-2820 -2776 0
-2820 2821 0
-2776 2821 0
-2821 2820 2776 0
-2821 -2777 0
-2821 2822 0
-2777 2822 0
-2822 2821 2777 0
-2822 -2778 0
-2822 2823 0
-2778 2823 0
-2823 2822 2778 0
-2823 -2779 0
-2823 2824 0
-2779 2824 0
-2824 2823 2779 0
-2824 -2780 0
-2824 2825 0
-2780 2825 0
-2825 2824 2780 0
-2825 -2781 0
-2825 2826 0
-2781 2826 0
-2826 2825 2781 0
-2826 -2782 0
-2826 2827 0
-2782 2827 0
-2827 2826 2782 0
-2827 -2783 0
-2827 2828 0
-2783 2828 0
-2828 2827 2783 0
-2828 -2784 0
-2828 2829 0
-2784 2829 0
-2829 2828 2784 0
-2829 -2785 0
-2829 2830 0
-2785 2830 0
-2830 2829 2785 0
-2830 -2786 0
-2830 2831 0
-2786 2831 0
-2831 2830 2786 0
-2831 -2787 0
-2831 2832 0
-2787 2832 0
-2832 2831 2787 0
-2832 -2788 0
-2832 2833 0
-2788 2833 0
-2833 2832 2788 0
-2833 -2789 0
-2833 2834 0
-2789 2834 0
-2834 2833 2789 0
-2834 -2790 0
-2834 2835 0
-2790 2835 0
-2835 2834 2790 0
-2835 -2791 0
-2835 2836 0
-2791 2836 0
-2836 2835 2791 0
-2836 -2792 0
-2836 2837 0
-2792 2837 0
-2837 2836 2792 0
-2837 -2793 0
-2837 2838 0
-2793 2838 0
-2838 2837 2793 0
-2838 -2794 0
-2838 2839 0
-2794 2839 0
-2839 2838 2794 0
-2839 -2795 0
-2839 2840 0
-2795 2840 0
-2840 2839 2795 0
-2840 -2796 0
-2840 2841 0
-2796 2841 0
-2841 2840 2796 0
-2841 -2797 0
-2841 2842 0
-2797 2842 0
-2842 2841 2797 0
-2842 -2798 0
-2842 2843 0
-2798 2843 0
-2843 2842 2798 0
-2843 -2799 0
-2843 2844 0
-2799 2844 0
-2844 2843 2799 0
-2844 -2800 0
-2844 2845 0
-2800 2845 0
-2845 2844 2800 0
-2845 -2801 0
-2845 2846 0
-2801 2846 0
-2846 2845 2801 0
-2846 -2802 0
-2846 2847 0
-2802 2847 0
-2847 2846 2802 0
-2847 -2803 0
-2847 2848 0
-2803 2848 0
-2848 2847 2803 0
-2848 -2804 0
-2848 2849 0
-2804 2849 0
-2849 2848 2804 0
-2849 -2805 0
-2849 2850 0
-2805 2850 0
-2850 2849 2805 0
-2851 1 0
-2851 45 0
2851 -1 -45 0
-2852 2 0
-2852 38 0
2852 -2 -38 0
-2853 3 0
-2853 14 0
2853 -3 -14 0
-2854 4 0
-2854 13 0
2854 -4 -13 0
-2855 5 0
-2855 41 0
2855 -5 -41 0
-2856 6 0
-2856 31 0
2856 -6 -31 0
-2857 7 0
-2857 37 0
2857 -7 -37 0
-2858 8 0
-2858 20 0
2858 -8 -20 0
-2859 9 0
-2859 35 0
2859 -9 -35 0
-2860 10 0
-2860 25 0
2860 -10 -25 0
-2861 11 0
-2861 39 0
2861 -11 -39 0
-2862 12 0
-2862 46 0
2862 -12 -46 0
-2863 13 0
-2863 4 0
2863 -13 -4 0
-2864 14 0
-2864 3 0
2864 -14 -3 0
-2865 15 0
-2865 30 0
2865 -15 -30 0
-2866 16 0
-2866 29 0
2866 -16 -29 0
-2867 18 0
-2867 47 0
2867 -18 -47 0
-2868 19 0
-2868 43 0
2868 -19 -43 0
-2869 20 0
-2869 23 0
2869 -20 -23 0
-2870 21 0
-2870 7 0
2870 -21 -7 0
-2871 22 0
-2871 21 0
2871 -22 -21 0
-2872 23 0
-2872 36 0
2872 -23 -36 0
-2873 24 0
-2873 11 0
2873 -24 -11 0
-2874 25 0
-2874 26 0
2874 -25 -26 0
-2875 26 0
-2875 40 0
2875 -26 -40 0
-2876 27 0
-2876 24 0
2876 -27 -24 0
-2877 29 0
-2877 16 0
2877 -29 -16 0
-2878 30 0
-2878 15 0
2878 -30 -15 0
-2879 31 0
-2879 6 0
2879 -31 -6 0
-2880 32 0
-2880 44 0
2880 -32 -44 0
-2881 34 0
-2881 42 0
2881 -34 -42 0
-2882 35 0
-2882 1 0
2882 -35 -1 0
-2883 36 0
-2883 8 0
2883 -36 -8 0
-2884 37 0
-2884 22 0
2884 -37 -22 0
-2885 38 0
-2885 12 0
2885 -38 -12 0
-2886 39 0
-2886 27 0
2886 -39 -27 0
-2887 40 0
-2887 10 0
2887 -40 -10 0
-2888 41 0
-2888 5 0
2888 -41 -5 0
-2889 42 0
-2889 34 0
2889 -42 -34 0
-2890 43 0
-2890 19 0
2890 -43 -19 0
-2891 44 0
-2891 32 0
2891 -44 -32 0
-2892 45 0
-2892 9 0
2892 -45 -9 0
-2893 46 0
-2893 2 0
2893 -46 -2 0
-2894 47 0
-2894 18 0
2894 -47 -18 0
-2851 -2852 0
-2851 2895 0
-2852 2895 0
-2895 2851 2852 0
-2895 -2853 0
-2895 2896 0
-2853 2896 0
-2896 2895 2853 0
-2896 -2854 0
-2896 2897 0
-2854 2897 0
-2897 2896 2854 0
-2897 -2855 0
-2897 2898 0
-2855 2898 0
-2898 2897 2855 0
-2898 -2856 0
-2898 2899 0
-2856 2899 0
-2899 2898 2856 0
-2899 -2857 0
-2899 2900 0
-2857 2900 0
-2900 2899 2857 0
-2900 -2858 0
-2900 2901 0
-2858 2901 0
-2901 2900 2858 0
-2901 -2859 0
-2901 2902 0
-2859 2902 0
-2902 2901 2859 0
-2902 -2860 0
-2902 2903 0
-2860 2903 0
-2903 2902 2860 0
-2903 -2861 0
-2903 2904 0
-2861 2904 0
-2904 2903 2861 0
-2904 -2862 0
-2904 2905 0
-2862 2905 0
-2905 2904 2862 0
-2905 -2863 0
-2905 2906 0
-2863 2906 0
-2906 2905 2863 0
-2906 -2864 0
-2906 2907 0
-2864 2907 0
-2907 2906 2864 0
-2907 -2865 0
-2907 2908 0
-2865 2908 0
-2908 2907 2865 0
-2908 -2866 0
-2908 2909 0
-2866 2909 0
-2909 2908 2866 0
-2909 -17 0
-2909 2910 0
-17 2910 0
-2910 2909 17 0
-2910 -2867 0
-2910 2911 0
-2867 2911 0
-2911 2910 2867 0
-2911 -2868 0
-2911 2912 0
-2868 2912 0
-2912 2911 2868 0
-2912 -2869 0
-2912 2913 0
-2869 2913 0
-2913 2912 2869 0
-2913 -2870 0
-2913 2914 0
-2870 2914 0
-2914 2913 2870 0
-2914 -2871 0
-2914 2915 0
-2871 2915 0
-2915 2914 2871 0
-2915 -2872 0
-2915 2916 0
-2872 2916 0
-2916 2915 2872 0
-2916 -2873 0
-2916 2917 0
-2873 2917 0
-2917 2916 2873 0
-2917 -2874 0
-2917 2918 0
-2874 2918 0
-2918 2917 2874 0
-2918 -2875 0
-2918 2919 0
-2875 2919 0
-2919 2918 2875 0
-2919 -2876 0
-2919 2920 0
-2876 2920 0
-2920 2919 2876 0
-2920 -2877 0
-2920 2921 0
-2877 2921 0
-2921 2920 2877 0
-2921 -2878 0
-2921 2922 0
-2878 2922 0
-2922 2921 2878 0
-2922 -2879 0
-2922 2923 0
-2879 2923 0
-2923 2922 2879 0
-2923 -2880 0
-2923 2924 0
-2880 2924 0
-2924 2923 2880 0
-2924 -33 0
-2924 2925 0
-33 2925 0
-2925 2924 33 0
-2925 -2881 0
-2925 2926 0
-2881 2926 0
-2926 2925 2881 0
-2926 -2882 0
-2926 2927 0
-2882 2927 0
-2927 2926 2882 0
-2927 -2883 0
-2927 2928 0
-2883 2928 0
-2928 2927 2883 0
-2928 -2884 0
-2928 2929 0
-2884 2929 0
-2929 2928 2884 0
-2929 -2885 0
-2929 2930 0
-2885 2930 0
-2930 2929 2885 0
-2930 -2886 0
-2930 2931 0
-2886 2931 0
-2931 2930 2886 0
-2931 -2887 0
-2931 2932 0
-2887 2932 0
-2932 2931 2887 0
-2932 -2888 0
-2932 2933 0
-2888 2933 0
-2933 2932 2888 0
-2933 -2889 0
-2933 2934 0
-2889 2934 0
-2934 2933 2889 0
-2934 -2890 0
-2934 2935 0
-2890 2935 0
-2935 2934 2890 0
-2935 -2891 0
-2935 2936 0
-2891 2936 0
-2936 2935 2891 0
-2936 -2892 0
-2936 2937 0
-2892 2937 0
-2937 2936 2892 0
-2937 -2893 0
-2937 2938 0
-2893 2938 0
-2938 2937 2893 0
-2938 -2894 0
-2938 2939 0
-2894 2939 0
-2939 2938 2894 0
-2940 1 0
-2940 20 0
2940 -1 -20 0
-2941 2 0
-2941 39 0
2941 -2 -39 0
-2942 3 0
-2942 15 0
2942 -3 -15 0
-2943 4 0
-2943 28 0
2943 -4 -28 0
-2944 5 0
-2944 13 0
2944 -5 -13 0
-2945 6 0
-2945 42 0
2945 -6 -42 0
-2946 8 0
-2946 35 0
2946 -8 -35 0
-2947 9 0
-2947 36 0
2947 -9 -36 0
-2948 10 0
-2948 26 0
2948 -10 -26 0
-2949 11 0
-2949 46 0
2949 -11 -46 0
-2950 12 0
-2950 24 0
2950 -12 -24 0
-2951 13 0
-2951 5 0
2951 -13 -5 0
-2952 15 0
-2952 3 0
2952 -15 -3 0
-2953 16 0
-2953 41 0
2953 -16 -41 0
-2954 17 0
-2954 32 0
2954 -17 -32 0
-2955 18 0
-2955 31 0
2955 -18 -31 0
-2956 19 0
-2956 47 0
2956 -19 -47 0
-2957 20 0
-2957 1 0
2957 -20 -1 0
-2958 23 0
-2958 45 0
2958 -23 -45 0
-2959 24 0
-2959 12 0
2959 -24 -12 0
-2960 25 0
-2960 40 0
2960 -25 -40 0
-2961 26 0
-2961 10 0
2961 -26 -10 0
-2962 27 0
-2962 38 0
2962 -27 -38 0
-2963 28 0
-2963 4 0
2963 -28 -4 0
-2964 31 0
-2964 18 0
2964 -31 -18 0
-2965 32 0
-2965 17 0
2965 -32 -17 0
-2966 33 0
-2966 44 0
2966 -33 -44 0
-2967 34 0
-2967 43 0
2967 -34 -43 0
-2968 35 0
-2968 8 0
2968 -35 -8 0
-2969 36 0
-2969 9 0
2969 -36 -9 0
-2970 38 0
-2970 27 0
2970 -38 -27 0
-2971 39 0
-2971 2 0
2971 -39 -2 0
-2972 40 0
-2972 25 0
2972 -40 -25 0
-2973 41 0
-2973 16 0
2973 -41 -16 0
-2974 42 0
-2974 6 0
2974 -42 -6 0
-2975 43 0
-2975 34 0
2975 -43 -34 0
-2976 44 0
-2976 33 0
2976 -44 -33 0
-2977 45 0
-2977 23 0
2977 -45 -23 0
-2978 46 0
-2978 11 0
2978 -46 -11 0
-2979 47 0
-2979 19 0
2979 -47 -19 0
-2940 -2941 0
-2940 2980 0
-2941 2980 0
-2980 2940 2941 0
-2980 -2942 0
-2980 2981 0
-2942 2981 0
-2981 2980 2942 0
-2981 -2943 0
-2981 2982 0
-2943 2982 0
-2982 2981 2943 0
-2982 -2944 0
-2982 2983 0
-2944 2983 0
-2983 2982 2944 0
-2983 -2945 0
-2983 2984 0
-2945 2984 0
-2984 2983 2945 0
-2984 -7 0
-2984 2985 0
-7 2985 0
-2985 2984 7 0
-2985 -2946 0
-2985 2986 0
-2946 2986 0
-2986 2985 2946 0
-2986 -2947 0
-2986 2987 0
-2947 2987 0
-2987 2986 2947 0
-2987 -2948 0
-2987 2988 0
-2948 2988 0
-2988 2987 2948 0
-2988 -2949 0
-2988 2989 0
-2949 2989 0
-2989 2988 2949 0
-2989 -2950 0
-2989 2990 0
-2950 2990 0
-2990 2989 2950 0
-2990 -2951 0
-2990 2991 0
-2951 2991 0
-2991 2990 2951 0
-2991 -14 0
-2991 2992 0
-14 2992 0
-2992 2991 14 0
-2992 -2952 0
-2992 2993 0
-2952 2993 0
-2993 2992 2952 0
-2993 -2953 0
-2993 2994 0
-2953 2994 0
-2994 2993 2953 0
-2994 -2954 0
-2994 2995 0
-2954 2995 0
-2995 2994 2954 0
-2995 -2955 0
-2995 2996 0
-2955 2996 0
-2996 2995 2955 0
-2996 -2956 0
-2996 2997 0
-2956 2997 0
-2997 2996 2956 0
-2997 -2957 0
-2997 2998 0
-2957 2998 0
-2998 2997 2957 0
-2998 -21 0
-2998 2999 0
-21 2999 0
-2999 2998 21 0
-2999 -22 0
-2999 3000 0
-22 3000 0
-3000 2999 22 0
-3000 -2958 0
-3000 3001 0
-2958 3001 0
-3001 3000 2958 0
-3001 -2959 0
-3001 3002 0
-2959 3002 0
-3002 3001 2959 0
-3002 -2960 0
-3002 3003 0
-2960 3003 0
-3003 3002 2960 0
-3003 -2961 0
-3003 3004 0
-2961 3004 0
-3004 3003 2961 0
-3004 -2962 0
-3004 3005 0
-2962 3005 0
-3005 3004 2962 0
-3005 -2963 0
-3005 3006 0
-2963 3006 0
-3006 3005 2963 0
-3006 -30 0
-3006 3007 0
-30 3007 0
-3007 3006 30 0
-3007 -2964 0
-3007 3008 0
-2964 3008 0
-3008 3007 2964 0
-3008 -2965 0
-3008 3009 0
-2965 3009 0
-3009 3008 2965 0
-3009 -2966 0
-3009 3010 0
-2966 3010 0
-3010 3009 2966 0
-3010 -2967 0
-3010 3011 0
-2967 3011 0
-3011 3010 2967 0
-3011 -2968 0
-3011 3012 0
-2968 3012 0
-3012 3011 2968 0
-3012 -2969 0
-3012 3013 0
-2969 3013 0
-3013 3012 2969 0
-3013 -37 0
-3013 3014 0
-37 3014 0
-3014 3013 37 0
-3014 -2970 0
-3014 3015 0
-2970 3015 0
-3015 3014 2970 0
-3015 -2971 0
-3015 3016 0
-2971 3016 0
-3016 3015 2971 0
-3016 -2972 0
-3016 3017 0
-2972 3017 0
-3017 3016 2972 0
-3017 -2973 0
-3017 3018 0
-2973 3018 0
-3018 3017 2973 0
-3018 -2974 0
-3018 3019 0
-2974 3019 0
-3019 3018 2974 0
-3019 -2975 0
-3019 3020 0
-2975 3020 0
-3020 3019 2975 0
-3020 -2976 0
-3020 3021 0
-2976 3021 0
-3021 3020 2976 0
-3021 -2977 0
-3021 3022 0
-2977 3022 0
-3022 3021 2977 0
-3022 -2978 0
-3022 3023 0
-2978 3023 0
-3023 3022 2978 0
-3023 -2979 0
-3023 3024 0
-2979 3024 0
-3024 3023 2979 0
-3025 1 0
-3025 21 0
3025 -1 -21 0
-3026 2 0
-3026 40 0
3026 -2 -40 0
-3027 3 0
-3027 16 0
3027 -3 -16 0
-3028 4 0
-3028 15 0
3028 -4 -15 0
-3029 5 0
-3029 14 0
3029 -5 -14 0
-3030 6 0
-3030 33 0
3030 -6 -33 0
-3031 7 0
-3031 8 0
3031 -7 -8 0
-3032 8 0
-3032 22 0
3032 -8 -22 0
-3033 9 0
-3033 37 0
3033 -9 -37 0
-3034 10 0
-3034 27 0
3034 -10 -27 0
-3035 11 0
-3035 10 0
3035 -11 -10 0
-3036 12 0
-3036 25 0
3036 -12 -25 0
-3037 13 0
-3037 41 0
3037 -13 -41 0
-3038 14 0
-3038 5 0
3038 -14 -5 0
-3039 15 0
-3039 4 0
3039 -15 -4 0
-3040 16 0
-3040 3 0
3040 -16 -3 0
-3041 17 0
-3041 19 0
3041 -17 -19 0
-3042 18 0
-3042 32 0
3042 -18 -32 0
-3043 19 0
-3043 17 0
3043 -19 -17 0
-3044 20 0
-3044 35 0
3044 -20 -35 0
-3045 21 0
-3045 9 0
3045 -21 -9 0
-3046 22 0
-3046 23 0
3046 -22 -23 0
-3047 23 0
-3047 7 0
3047 -23 -7 0
-3048 24 0
-3048 46 0
3048 -24 -46 0
-3049 25 0
-3049 2 0
3049 -25 -2 0
-3050 26 0
-3050 11 0
3050 -26 -11 0
-3051 27 0
-3051 26 0
3051 -27 -26 0
-3052 28 0
-3052 29 0
3052 -28 -29 0
-3053 29 0
-3053 28 0
3053 -29 -28 0
-3054 31 0
-3054 43 0
3054 -31 -43 0
-3055 32 0
-3055 18 0
3055 -32 -18 0
-3056 33 0
-3056 6 0
3056 -33 -6 0
-3057 34 0
-3057 44 0
3057 -34 -44 0
-3058 35 0
-3058 36 0
3058 -35 -36 0
-3059 36 0
-3059 45 0
3059 -36 -45 0
-3060 37 0
-3060 1 0
3060 -37 -1 0
-3061 38 0
-3061 24 0
3061 -38 -24 0
-3062 39 0
-3062 38 0
3062 -39 -38 0
-3063 40 0
-3063 12 0
3063 -40 -12 0
-3064 41 0
-3064 13 0
3064 -41 -13 0
-3065 43 0
-3065 31 0
3065 -43 -31 0
-3066 44 0
-3066 34 0
3066 -44 -34 0
-3067 45 0
-3067 20 0
3067 -45 -20 0
-3068 46 0
-3068 39 0
3068 -46 -39 0
-3025 -3026 0
-3025 3069 0
-3026 3069 0
-3069 3025 3026 0
-3069 -3027 0
-3069 3070 0
-3027 3070 0
-3070 3069 3027 0
-3070 -3028 0
-3070 3071 0
-3028 3071 0
-3071 3070 3028 0
-3071 -3029 0
-3071 3072 0
-3029 3072 0
-3072 3071 3029 0
-3072 -3030 0
-3072 3073 0
-3030 3073 0
-3073 3072 3030 0
-3073 -3031 0
-3073 3074 0
-3031 3074 0
-3074 3073 3031 0
-3074 -3032 0
-3074 3075 0
-3032 3075 0
-3075 3074 3032 0
-3075 -3033 0
-3075 3076 0
-3033 3076 0
-3076 3075 3033 0
-3076 -3034 0
-3076 3077 0
-3034 3077 0
-3077 3076 3034 0
-3077 -3035 0
-3077 3078 0
-3035 3078 0
-3078 3077 3035 0
-3078 -3036 0
-3078 3079 0
-3036 3079 0
-3079 3078 3036 0
-3079 -3037 0
-3079 3080 0
-3037 3080 0
-3080 3079 3037 0
-3080 -3038 0
-3080 3081 0
-3038 3081 0
-3081 3080 3038 0
-3081 -3039 0
-3081 3082 0
-3039 3082 0
-3082 3081 3039 0
-3082 -3040 0
-3082 3083 0
-3040 3083 0
-3083 3082 3040 0
-3083 -3041 0
-3083 3084 0
-3041 3084 0
-3084 3083 3041 0
-3084 -3042 0
-3084 3085 0
-3042 3085 0
-3085 3084 3042 0
-3085 -3043 0
-3085 3086 0
-3043 3086 0
-3086 3085 3043 0
-3086 -3044 0
-3086 3087 0
-3044 3087 0
-3087 3086 3044 0
-3087 -3045 0
-3087 3088 0
-3045 3088 0
-3088 3087 3045 0
-3088 -3046 0
-3088 3089 0
-3046 3089 0
-3089 3088 3046 0
-3089 -3047 0
-3089 3090 0
-3047 3090 0
-3090 3089 3047 0
-3090 -3048 0
-3090 3091 0
-3048 3091 0
-3091 3090 3048 0
-3091 -3049 0
-3091 3092 0
-3049 3092 0
-3092 3091 3049 0
-3092 -3050 0
-3092 3093 0
-3050 3093 0
-3093 3092 3050 0
-3093 -3051 0
-3093 3094 0
-3051 3094 0
-3094 3093 3051 0
-3094 -3052 0
-3094 3095 0
-3052 3095 0
-3095 3094 3052 0
-3095 -3053 0
-3095 3096 0
-3053 3096 0
-3096 3095 3053 0
-3096 -3054 0
-3096 3097 0
-3054 3097 0
-3097 3096 3054 0
-3097 -3055 0
-3097 3098 0
-3055 3098 0
-3098 3097 3055 0
-3098 -3056 0
-3098 3099 0
-3056 3099 0
-3099 3098 3056 0
-3099 -3057 0
-3099 3100 0
-3057 3100 0
-3100 3099 3057 0
-3100 -3058 0
-3100 3101 0
-3058 3101 0
-3101 3100 3058 0
-3101 -3059 0
-3101 3102 0
-3059 3102 0
-3102 3101 3059 0
-3102 -3060 0
-3102 3103 0
-3060 3103 0
-3103 3102 3060 0
-3103 -3061 0
-3103 3104 0
-3061 3104 0
-3104 3103 3061 0
-3104 -3062 0
-3104 3105 0
-3062 3105 0
-3105 3104 3062 0
-3105 -3063 0
-3105 3106 0
-3063 3106 0
-3106 3105 3063 0
-3106 -3064 0
-3106 3107 0
-3064 3107 0
-3107 3106 3064 0
-3107 -42 0
-3107 3108 0
-42 3108 0
-3108 3107 42 0
-3108 -3065 0
-3108 3109 0
-3065 3109 0
-3109 3108 3065 0
-3109 -3066 0
-3109 3110 0
-3066 3110 0
-3110 3109 3066 0
-3110 -3067 0
-3110 3111 0
-3067 3111 0
-3111 3110 3067 0
-3111 -3068 0
-3111 3112 0
-3068 3112 0
-3112 3111 3068 0
-3112 -47 0
-3112 3113 0
-47 3113 0
-3113 3112 47 0
-3114 1 0
-3114 24 0
3114 -1 -24 0
-3115 2 0
-3115 45 0
3115 -2 -45 0
-3116 3 0
-3116 17 0
3116 -3 -17 0
-3117 4 0
-3117 47 0
3117 -4 -47 0
-3118 5 0
-3118 43 0
3118 -5 -43 0
-3119 6 0
-3119 13 0
3119 -6 -13 0
-3120 7 0
-3120 10 0
3120 -7 -10 0
-3121 8 0
-3121 38 0
3121 -8 -38 0
-3122 9 0
-3122 39 0
3122 -9 -39 0
-3123 10 0
-3123 37 0
3123 -10 -37 0
-3124 11 0
-3124 20 0
3124 -11 -20 0
-3125 12 0
-3125 35 0
3125 -12 -35 0
-3126 13 0
-3126 6 0
3126 -13 -6 0
-3127 14 0
-3127 44 0
3127 -14 -44 0
-3128 15 0
-3128 33 0
3128 -15 -33 0
-3129 16 0
-3129 42 0
3129 -16 -42 0
-3130 17 0
-3130 3 0
3130 -17 -3 0
-3131 18 0
-3131 41 0
3131 -18 -41 0
-3132 19 0
-3132 29 0
3132 -19 -29 0
-3133 20 0
-3133 2 0
3133 -20 -2 0
-3134 21 0
-3134 25 0
3134 -21 -25 0
-3135 22 0
-3135 26 0
3135 -22 -26 0
-3136 23 0
-3136 46 0
3136 -23 -46 0
-3137 24 0
-3137 23 0
3137 -24 -23 0
-3138 25 0
-3138 7 0
3138 -25 -7 0
-3139 26 0
-3139 21 0
3139 -26 -21 0
-3140 27 0
-3140 36 0
3140 -27 -36 0
-3141 28 0
-3141 34 0
3141 -28 -34 0
-3142 29 0
-3142 19 0
3142 -29 -19 0
-3143 30 0
-3143 32 0
3143 -30 -32 0
-3144 32 0
-3144 30 0
3144 -32 -30 0
-3145 33 0
-3145 15 0
3145 -33 -15 0
-3146 34 0
-3146 28 0
3146 -34 -28 0
-3147 35 0
-3147 11 0
3147 -35 -11 0
-3148 36 0
-3148 12 0
3148 -36 -12 0
-3149 37 0
-3149 40 0
3149 -37 -40 0
-3150 38 0
-3150 1 0
3150 -38 -1 0
-3151 39 0
-3151 8 0
3151 -39 -8 0
-3152 40 0
-3152 22 0
3152 -40 -22 0
-3153 41 0
-3153 18 0
3153 -41 -18 0
-3154 42 0
-3154 16 0
3154 -42 -16 0
-3155 43 0
-3155 5 0
3155 -43 -5 0
-3156 44 0
-3156 14 0
3156 -44 -14 0
-3157 45 0
-3157 27 0
3157 -45 -27 0
-3158 46 0
-3158 9 0
3158 -46 -9 0
-3159 47 0
-3159 4 0
3159 -47 -4 0
-3114 -3115 0
-3114 3160 0
-3115 3160 0
-3160 3114 3115 0
-3160 -3116 0
-3160 3161 0
-3116 3161 0
-3161 3160 3116 0
-3161 -3117 0
-3161 3162 0
-3117 3162 0
-3162 3161 3117 0
-3162 -3118 0
-3162 3163 0
-3118 3163 0
-3163 3162 3118 0
-3163 -3119 0
-3163 3164 0
-3119 3164 0
-3164 3163 3119 0
-3164 -3120 0
-3164 3165 0
-3120 3165 0
-3165 3164 3120 0
-3165 -3121 0
-3165 3166 0
-3121 3166 0
-3166 3165 3121 0
-3166 -3122 0
-3166 3167 0
-3122 3167 0
-3167 3166 3122 0
-3167 -3123 0
-3167 3168 0
-3123 3168 0
-3168 3167 3123 0
-3168 -3124 0
-3168 3169 0
-3124 3169 0
-3169 3168 3124 0
-3169 -3125 0
-3169 3170 0
-3125 3170 0
-3170 3169 3125 0
-3170 -3126 0
-3170 3171 0
-3126 3171 0
-3171 3170 3126 0
-3171 -3127 0
-3171 3172 0
-3127 3172 0
-3172 3171 3127 0
-3172 -3128 0
-3172 3173 0
-3128 3173 0
-3173 3172 3128 0
-3173 -3129 0
-3173 3174 0
-3129 3174 0
-3174 3173 3129 0
-3174 -3130 0
-3174 3175 0
-3130 3175 0
-3175 3174 3130 0
-3175 -3131 0
-3175 3176 0
-3131 3176 0
-3176 3175 3131 0
-3176 -3132 0
-3176 3177 0
-3132 3177 0
-3177 3176 3132 0
-3177 -3133 0
-3177 3178 0
-3133 3178 0
-3178 3177 3133 0
-3178 -3134 0
-3178 3179 0
-3134 3179 0
-3179 3178 3134 0
-3179 -3135 0
-3179 3180 0
-3135 3180 0
-3180 3179 3135 0
-3180 -3136 0
-3180 3181 0
-3136 3181 0
-3181 3180 3136 0
-3181 -3137 0
-3181 3182 0
-3137 3182 0
-3182 3181 3137 0
-3182 -3138 0
-3182 3183 0
-3138 3183 0
-3183 3182 3138 0
-3183 -3139 0
-3183 3184 0
-3139 3184 0
-3184 3183 3139 0
-3184 -3140 0
-3184 3185 0
-3140 3185 0
-3185 3184 3140 0
-3185 -3141 0
-3185 3186 0
-3141 3186 0
-3186 3185 3141 0
-3186 -3142 0
-3186 3187 0
-3142 3187 0
-3187 3186 3142 0
-3187 -3143 0
-3187 3188 0
-3143 3188 0
-3188 3187 3143 0
-3188 -3144 0
-3188 3189 0
-3144 3189 0
-3189 3188 3144 0
-3189 -3145 0
-3189 3190 0
-3145 3190 0
-3190 3189 3145 0
-3190 -3146 0
-3190 3191 0
-3146 3191 0
-3191 3190 3146 0
-3191 -3147 0
-3191 3192 0
-3147 3192 0
-3192 3191 3147 0
-3192 -3148 0
-3192 3193 0
-3148 3193 0
-3193 3192 3148 0
-3193 -3149 0
-3193 3194 0
-3149 3194 0
-3194 3193 3149 0
-3194 -3150 0
-3194 3195 0
-3150 3195 0
-3195 3194 3150 0
-3195 -3151 0
-3195 3196 0
-3151 3196 0
-3196 3195 3151 0
-3196 -3152 0
-3196 3197 0
-3152 3197 0
-3197 3196 3152 0
-3197 -3153 0
-3197 3198 0
-3153 3198 0
-3198 3197 3153 0
-3198 -3154 0
-3198 3199 0
-3154 3199 0
-3199 3198 3154 0
-3199 -3155 0
-3199 3200 0
-3155 3200 0
-3200 3199 3155 0
-3200 -3156 0
-3200 3201 0
-3156 3201 0
-3201 3200 3156 0
-3201 -3157 0
-3201 3202 0
-3157 3202 0
-3202 3201 3157 0
-3202 -3158 0
-3202 3203 0
-3158 3203 0
-3203 3202 3158 0
-3203 -3159 0
-3203 3204 0
-3159 3204 0
-3204 3203 3159 0
-3205 1 0
-3205 25 0
3205 -1 -25 0
-3206 2 0
-3206 7 0
3206 -2 -7 0
-3207 3 0
-3207 18 0
3207 -3 -18 0
-3208 4 0
-3208 17 0
3208 -4 -17 0
-3209 5 0
-3209 44 0
3209 -5 -44 0
-3210 6 0
-3210 14 0
3210 -6 -14 0
-3211 7 0
-3211 11 0
3211 -7 -11 0
-3212 8 0
-3212 26 0
3212 -8 -26 0
-3213 9 0
-3213 40 0
3213 -9 -40 0
-3214 10 0
-3214 1 0
3214 -10 -1 0
-3215 11 0
-3215 21 0
3215 -11 -21 0
-3216 12 0
-3216 22 0
3216 -12 -22 0
-3217 13 0
-3217 42 0
3217 -13 -42 0
-3218 14 0
-3218 6 0
3218 -14 -6 0
-3219 15 0
-3219 34 0
3219 -15 -34 0
-3220 16 0
-3220 33 0
3220 -16 -33 0
-3221 17 0
-3221 4 0
3221 -17 -4 0
-3222 18 0
-3222 3 0
3222 -18 -3 0
-3223 19 0
-3223 30 0
3223 -19 -30 0
-3224 20 0
-3224 38 0
3224 -20 -38 0
-3225 21 0
-3225 12 0
3225 -21 -12 0
-3226 22 0
-3226 27 0
3226 -22 -27 0
-3227 23 0
-3227 10 0
3227 -23 -10 0
-3228 24 0
-3228 20 0
3228 -24 -20 0
-3229 25 0
-3229 8 0
3229 -25 -8 0
-3230 26 0
-3230 9 0
3230 -26 -9 0
-3231 27 0
-3231 37 0
3231 -27 -37 0
-3232 28 0
-3232 31 0
3232 -28 -31 0
-3233 29 0
-3233 47 0
3233 -29 -47 0
-3234 30 0
-3234 19 0
3234 -30 -19 0
-3235 31 0
-3235 28 0
3235 -31 -28 0
-3236 33 0
-3236 16 0
3236 -33 -16 0
-3237 34 0
-3237 15 0
3237 -34 -15 0
-3238 35 0
-3238 39 0
3238 -35 -39 0
-3239 36 0
-3239 46 0
3239 -36 -46 0
-3240 37 0
-3240 2 0
3240 -37 -2 0
-3241 38 0
-3241 35 0
3241 -38 -35 0
-3242 39 0
-3242 36 0
3242 -39 -36 0
-3243 40 0
-3243 23 0
3243 -40 -23 0
-3244 41 0
-3244 43 0
3244 -41 -43 0
-3245 42 0
-3245 13 0
3245 -42 -13 0
-3246 43 0
-3246 41 0
3246 -43 -41 0
-3247 44 0
-3247 5 0
3247 -44 -5 0
-3248 45 0
-3248 24 0
3248 -45 -24 0
-3249 46 0
-3249 45 0
3249 -46 -45 0
-3250 47 0
-3250 29 0
3250 -47 -29 0
-3205 -3206 0
-3205 3251 0
-3206 3251 0
-3251 3205 3206 0
-3251 -3207 0
-3251 3252 0
-3207 3252 0
-3252 3251 3207 0
-3252 -3208 0
-3252 3253 0
-3208 3253 0
-3253 3252 3208 0
-3253 -3209 0
-3253 3254 0
-3209 3254 0
-3254 3253 3209 0
-3254 -3210 0
-3254 3255 0
-3210 3255 0
-3255 3254 3210 0
-3255 -3211 0
-3255 3256 0
-3211 3256 0
-3256 3255 3211 0
-3256 -3212 0
-3256 3257 0
-3212 3257 0
-3257 3256 3212 0
-3257 -3213 0
-3257 3258 0
-3213 3258 0
-3258 3257 3213 0
-3258 -3214 0
-3258 3259 0
-3214 3259 0
-3259 3258 3214 0
-3259 -3215 0
-3259 3260 0
-3215 3260 0
-3260 3259 3215 0
-3260 -3216 0
-3260 3261 0
-3216 3261 0
-3261 3260 3216 0
-3261 -3217 0
-3261 3262 0
-3217 3262 0
-3262 3261 3217 0
-3262 -3218 0
-3262 3263 0
-3218 3263 0
-3263 3262 3218 0
-3263 -3219 0
-3263 3264 0
-3219 3264 0
-3264 3263 3219 0
-3264 -3220 0
-3264 3265 0
-3220 3265 0
-3265 3264 3220 0
-3265 -3221 0
-3265 3266 0
-3221 3266 0
-3266 3265 3221 0
-3266 -3222 0
-3266 3267 0
-3222 3267 0
-3267 3266 3222 0
-3267 -3223 0
-3267 3268 0
-3223 3268 0
-3268 3267 3223 0
-3268 -3224 0
-3268 3269 0
-3224 3269 0
-3269 3268 3224 0
-3269 -3225 0
-3269 3270 0
-3225 3270 0
-3270 3269 3225 0
-3270 -3226 0
-3270 3271 0
-3226 3271 0
-3271 3270 3226 0
-3271 -3227 0
-3271 3272 0
-3227 3272 0
-3272 3271 3227 0
-3272 -3228 0
-3272 3273 0
-3228 3273 0
-3273 3272 3228 0
-3273 -3229 0
-3273 3274 0
-3229 3274 0
-3274 3273 3229 0
-3274 -3230 0
-3274 3275 0
-3230 3275 0
-3275 3274 3230 0
-3275 -3231 0
-3275 3276 0
-3231 3276 0
-3276 3275 3231 0
-3276 -3232 0
-3276 3277 0
-3232 3277 0
-3277 3276 3232 0
-3277 -3233 0
-3277 3278 0
-3233 3278 0
-3278 3277 3233 0
-3278 -3234 0
-3278 3279 0
-3234 3279 0
-3279 3278 3234 0
-3279 -3235 0
-3279 3280 0
-3235 3280 0
-3280 3279 3235 0
-3280 -3236 0
-3280 3281 0
-3236 3281 0
-3281 3280 3236 0
-3281 -3237 0
-3281 3282 0
-3237 3282 0
-3282 3281 3237 0
-3282 -3238 0
-3282 3283 0
-3238 3283 0
-3283 3282 3238 0
-3283 -3239 0
-3283 3284 0
-3239 3284 0
-3284 3283 3239 0
-3284 -3240 0
-3284 3285 0
-3240 3285 0
-3285 3284 3240 0
-3285 -3241 0
-3285 3286 0
-3241 3286 0
-3286 3285 3241 0
-3286 -3242 0
-3286 3287 0
-3242 3287 0
-3287 3286 3242 0
-3287 -3243 0
-3287 3288 0
-3243 3288 0
-3288 3287 3243 0
-3288 -3244 0
-3288 3289 0
-3244 3289 0
-3289 3288 3244 0
-3289 -3245 0
-3289 3290 0
-3245 3290 0
-3290 3289 3245 0
-3290 -3246 0
-3290 3291 0
-3246 3291 0
-3291 3290 3246 0
-3291 -3247 0
-3291 3292 0
-3247 3292 0
-3292 3291 3247 0
-3292 -3248 0
-3292 3293 0
-3248 3293 0
-3293 3292 3248 0
-3293 -3249 0
-3293 3294 0
-3249 3294 0
-3294 3293 3249 0
-3294 -3250 0
-3294 3295 0
-3250 3295 0
-3295 3294 3250 0
-3296 1 0
-3296 26 0
3296 -1 -26 0
-3297 2 0
-3297 21 0
3297 -2 -21 0
-3298 3 0
-3298 19 0
3298 -3 -19 0
-3299 4 0
-3299 32 0
3299 -4 -32 0
-3300 5 0
-3300 17 0
3300 -5 -17 0
-3301 6 0
-3301 15 0
3301 -6 -15 0
-3302 7 0
-3302 12 0
3302 -7 -12 0
-3303 8 0
-3303 40 0
3303 -8 -40 0
-3304 9 0
-3304 10 0
3304 -9 -10 0
-3305 10 0
-3305 8 0
3305 -10 -8 0
-3306 11 0
-3306 22 0
3306 -11 -22 0
-3307 12 0
-3307 37 0
3307 -12 -37 0
-3308 13 0
-3308 43 0
3308 -13 -43 0
-3309 14 0
-3309 18 0
3309 -14 -18 0
-3310 15 0
-3310 6 0
3310 -15 -6 0
-3311 16 0
-3311 44 0
3311 -16 -44 0
-3312 17 0
-3312 5 0
3312 -17 -5 0
-3313 18 0
-3313 14 0
3313 -18 -14 0
-3314 19 0
-3314 3 0
3314 -19 -3 0
-3315 20 0
-3315 39 0
3315 -20 -39 0
-3316 21 0
-3316 27 0
3316 -21 -27 0
-3317 22 0
-3317 2 0
3317 -22 -2 0
-3318 23 0
-3318 25 0
3318 -23 -25 0
-3319 24 0
-3319 35 0
3319 -24 -35 0
-3320 25 0
-3320 9 0
3320 -25 -9 0
-3321 26 0
-3321 23 0
3321 -26 -23 0
-3322 27 0
-3322 7 0
3322 -27 -7 0
-3323 28 0
-3323 42 0
3323 -28 -42 0
-3324 29 0
-3324 31 0
3324 -29 -31 0
-3325 30 0
-3325 34 0
3325 -30 -34 0
-3326 31 0
-3326 29 0
3326 -31 -29 0
-3327 32 0
-3327 4 0
3327 -32 -4 0
-3328 34 0
-3328 30 0
3328 -34 -30 0
-3329 35 0
-3329 46 0
3329 -35 -46 0
-3330 36 0
-3330 24 0
3330 -36 -24 0
-3331 37 0
-3331 11 0
3331 -37 -11 0
-3332 38 0
-3332 36 0
3332 -38 -36 0
-3333 39 0
-3333 45 0
3333 -39 -45 0
-3334 40 0
-3334 1 0
3334 -40 -1 0
-3335 41 0
-3335 47 0
3335 -41 -47 0
-3336 42 0
-3336 28 0
3336 -42 -28 0
-3337 43 0
-3337 13 0
3337 -43 -13 0
-3338 44 0
-3338 16 0
3338 -44 -16 0
-3339 45 0
-3339 38 0
3339 -45 -38 0
-3340 46 0
-3340 20 0
3340 -46 -20 0
-3341 47 0
-3341 41 0
3341 -47 -41 0
-3296 -3297 0
-3296 3342 0
-3297 3342 0
-3342 3296 3297 0
-3342 -3298 0
-3342 3343 0
-3298 3343 0
-3343 3342 3298 0
-3343 -3299 0
-3343 3344 0
-3299 3344 0
-3344 3343 3299 0
-3344 -3300 0
-3344 3345 0
-3300 3345 0
-3345 3344 3300 0
-3345 -3301 0
-3345 3346 0
-3301 3346 0
-3346 3345 3301 0
-3346 -3302 0
-3346 3347 0
-3302 3347 0
-3347 3346 3302 0
-3347 -3303 0
-3347 3348 0
-3303 3348 0
-3348 3347 3303 0
-3348 -3304 0
-3348 3349 0
-3304 3349 0
-3349 3348 3304 0
-3349 -3305 0
-3349 3350 0
-3305 3350 0
-3350 3349 3305 0
-3350 -3306 0
-3350 3351 0
-3306 3351 0
-3351 3350 3306 0
-3351 -3307 0
-3351 3352 0
-3307 3352 0
-3352 3351 3307 0
-3352 -3308 0
-3352 3353 0
-3308 3353 0
-3353 3352 3308 0
-3353 -3309 0
-3353 3354 0
-3309 3354 0
-3354 3353 3309 0
-3354 -3310 0
-3354 3355 0
-3310 3355 0
-3355 3354 3310 0
-3355 -3311 0
-3355 3356 0
-3311 3356 0
-3356 3355 3311 0
-3356 -3312 0
-3356 3357 0
-3312 3357 0
-3357 3356 3312 0
-3357 -3313 0
-3357 3358 0
-3313 3358 0
-3358 3357 3313 0
-3358 -3314 0
-3358 3359 0
-3314 3359 0
-3359 3358 3314 0
-3359 -3315 0
-3359 3360 0
-3315 3360 0
-3360 3359 3315 0
-3360 -3316 0
-3360 3361 0
-3316 3361 0
-3361 3360 3316 0
-3361 -3317 0
-3361 3362 0
-3317 3362 0
-3362 3361 3317 0
-3362 -3318 0
-3362 3363 0
-3318 3363 0
-3363 3362 3318 0
-3363 -3319 0
-3363 3364 0
-3319 3364 0
-3364 3363 3319 0
-3364 -3320 0
-3364 3365 0
-3320 3365 0
-3365 3364 3320 0
-3365 -3321 0
-3365 3366 0
-3321 3366 0
-3366 3365 3321 0
-3366 -3322 0
-3366 3367 0
-3322 3367 0
-3367 3366 3322 0
-3367 -3323 0
-3367 3368 0
-3323 3368 0
-3368 3367 3323 0
-3368 -3324 0
-3368 3369 0
-3324 3369 0
-3369 3368 3324 0
-3369 -3325 0
-3369 3370 0
-3325 3370 0
-3370 3369 3325 0
-3370 -3326 0
-3370 3371 0
-3326 3371 0
-3371 3370 3326 0
-3371 -3327 0
-3371 3372 0
-3327 3372 0
-3372 3371 3327 0
-3372 -3328 0
-3372 3373 0
-3328 3373 0
-3373 3372 3328 0
-3373 -3329 0
-3373 3374 0
-3329 3374 0
-3374 3373 3329 0
-3374 -3330 0
-3374 3375 0
-3330 3375 0
-3375 3374 3330 0
-3375 -3331 0
-3375 3376 0
-3331 3376 0
-3376 3375 3331 0
-3376 -3332 0
-3376 3377 0
-3332 3377 0
-3377 3376 3332 0
-3377 -3333 0
-3377 3378 0
-3333 3378 0
-3378 3377 3333 0
-3378 -3334 0
-3378 3379 0
-3334 3379 0
-3379 3378 3334 0
-3379 -3335 0
-3379 3380 0
-3335 3380 0
-3380 3379 3335 0
-3380 -3336 0
-3380 3381 0
-3336 3381 0
-3381 3380 3336 0
-3381 -3337 0
-3381 3382 0
-3337 3382 0
-3382 3381 3337 0
-3382 -3338 0
-3382 3383 0
-3338 3383 0
-3383 3382 3338 0
-3383 -3339 0
-3383 3384 0
-3339 3384 0
-3384 3383 3339 0
-3384 -3340 0
-3384 3385 0
-3340 3385 0
-3385 3384 3340 0
-3385 -3341 0
-3385 3386 0
-3341 3386 0
-3386 3385 3341 0
-3387 1 0
-3387 27 0
3387 -1 -27 0
-3388 2 0
-3388 9 0
3388 -2 -9 0
-3389 3 0
-3389 47 0
3389 -3 -47 0
-3390 4 0
-3390 19 0
3390 -4 -19 0
-3391 5 0
-3391 18 0
3391 -5 -18 0
-3392 6 0
-3392 16 0
3392 -6 -16 0
-3393 7 0
-3393 46 0
3393 -7 -46 0
-3394 8 0
-3394 2 0
3394 -8 -2 0
-3395 9 0
-3395 11 0
3395 -9 -11 0
-3396 10 0
-3396 36 0
3396 -10 -36 0
-3397 11 0
-3397 23 0
3397 -11 -23 0
-3398 12 0
-3398 1 0
3398 -12 -1 0
-3399 13 0
-3399 44 0
3399 -13 -44 0
-3400 14 0
-3400 43 0
3400 -14 -43 0
-3401 15 0
-3401 42 0
3401 -15 -42 0
-3402 16 0
-3402 6 0
3402 -16 -6 0
-3403 17 0
-3403 41 0
3403 -17 -41 0
-3404 18 0
-3404 5 0
3404 -18 -5 0
-3405 19 0
-3405 4 0
3405 -19 -4 0
-3406 20 0
-3406 40 0
3406 -20 -40 0
-3407 21 0
-3407 24 0
3407 -21 -24 0
-3408 22 0
-3408 38 0
3408 -22 -38 0
-3409 23 0
-3409 12 0
3409 -23 -12 0
-3410 24 0
-3410 22 0
3410 -24 -22 0
-3411 25 0
-3411 45 0
3411 -25 -45 0
-3412 26 0
-3412 20 0
3412 -26 -20 0
-3413 27 0
-3413 8 0
3413 -27 -8 0
-3414 28 0
-3414 33 0
3414 -28 -33 0
-3415 29 0
-3415 32 0
3415 -29 -32 0
-3416 30 0
-3416 31 0
3416 -30 -31 0
-3417 31 0
-3417 30 0
3417 -31 -30 0
-3418 32 0
-3418 29 0
3418 -32 -29 0
-3419 33 0
-3419 28 0
3419 -33 -28 0
-3420 35 0
-3420 10 0
3420 -35 -10 0
-3421 36 0
-3421 25 0
3421 -36 -25 0
-3422 37 0
-3422 39 0
3422 -37 -39 0
-3423 38 0
-3423 37 0
3423 -38 -37 0
-3424 39 0
-3424 7 0
3424 -39 -7 0
-3425 40 0
-3425 35 0
3425 -40 -35 0
-3426 41 0
-3426 17 0
3426 -41 -17 0
-3427 42 0
-3427 15 0
3427 -42 -15 0
-3428 43 0
-3428 14 0
3428 -43 -14 0
-3429 44 0
-3429 13 0
3429 -44 -13 0
-3430 45 0
-3430 26 0
3430 -45 -26 0
-3431 46 0
-3431 21 0
3431 -46 -21 0
-3432 47 0
-3432 3 0
3432 -47 -3 0
-3387 -3388 0
-3387 3433 0
-3388 3433 0
-3433 3387 3388 0
-3433 -3389 0
-3433 3434 0
-3389 3434 0
-3434 3433 3389 0
-3434 -3390 0
-3434 3435 0
-3390 3435 0
-3435 3434 3390 0
-3435 -3391 0
-3435 3436 0
-3391 3436 0
-3436 3435 3391 0
-3436 -3392 0
-3436 3437 0
-3392 3437 0
-3437 3436 3392 0
-3437 -3393 0
-3437 3438 0
-3393 3438 0
-3438 3437 3393 0
-3438 -3394 0
-3438 3439 0
-3394 3439 0
-3439 3438 3394 0
-3439 -3395 0
-3439 3440 0
-3395 3440 0
-3440 3439 3395 0
-3440 -3396 0
-3440 3441 0
-3396 3441 0
-3441 3440 3396 0
-3441 -3397 0
-3441 3442 0
-3397 3442 0
-3442 3441 3397 0
-3442 -3398 0
-3442 3443 0
-3398 3443 0
-3443 3442 3398 0
-3443 -3399 0
-3443 3444 0
-3399 3444 0
-3444 3443 3399 0
-3444 -3400 0
-3444 3445 0
-3400 3445 0
-3445 3444 3400 0
-3445 -3401 0
-3445 3446 0
-3401 3446 0
-3446 3445 3401 0
-3446 -3402 0
-3446 3447 0
-3402 3447 0
-3447 3446 3402 0
-3447 -3403 0
-3447 3448 0
-3403 3448 0
-3448 3447 3403 0
-3448 -3404 0
-3448 3449 0
-3404 3449 0
-3449 3448 3404 0
-3449 -3405 0
-3449 3450 0
-3405 3450 0
-3450 3449 3405 0
-3450 -3406 0
-3450 3451 0
-3406 3451 0
-3451 3450 3406 0
-3451 -3407 0
-3451 3452 0
-3407 3452 0
-3452 3451 3407 0
-3452 -3408 0
-3452 3453 0
-3408 3453 0
-3453 3452 3408 0
-3453 -3409 0
-3453 3454 0
-3409 3454 0
-3454 3453 3409 0
-3454 -3410 0
-3454 3455 0
-3410 3455 0
-3455 3454 3410 0
-3455 -3411 0
-3455 3456 0
-3411 3456 0
-3456 3455 3411 0
-3456 -3412 0
-3456 3457 0
-3412 3457 0
-3457 3456 3412 0
-3457 -3413 0
-3457 3458 0
-3413 3458 0
-3458 3457 3413 0
-3458 -3414 0
-3458 3459 0
-3414 3459 0
-3459 3458 3414 0
-3459 -3415 0
-3459 3460 0
-3415 3460 0
-3460 3459 3415 0
-3460 -3416 0
-3460 3461 0
-3416 3461 0
-3461 3460 3416 0
-3461 -3417 0
-3461 3462 0
-3417 3462 0
-3462 3461 3417 0
-3462 -3418 0
-3462 3463 0
-3418 3463 0
-3463 3462 3418 0
-3463 -3419 0
-3463 3464 0
-3419 3464 0
-3464 3463 3419 0
-3464 -3420 0
-3464 3465 0
-3420 3465 0
-3465 3464 3420 0
-3465 -3421 0
-3465 3466 0
-3421 3466 0
-3466 3465 3421 0
-3466 -3422 0
-3466 3467 0
-3422 3467 0
-3467 3466 3422 0
-3467 -3423 0
-3467 3468 0
-3423 3468 0
-3468 3467 3423 0
-3468 -3424 0
-3468 3469 0
-3424 3469 0
-3469 3468 3424 0
-3469 -3425 0
-3469 3470 0
-3425 3470 0
-3470 3469 3425 0
-3470 -3426 0
-3470 3471 0
-3426 3471 0
-3471 3470 3426 0
-3471 -3427 0
-3471 3472 0
-3427 3472 0
-3472 3471 3427 0
-3472 -3428 0
-3472 3473 0
-3428 3473 0
-3473 3472 3428 0
-3473 -3429 0
-3473 3474 0
-3429 3474 0
-3474 3473 3429 0
-3474 -3430 0
-3474 3475 0
-3430 3475 0
-3475 3474 3430 0
-3475 -3431 0
-3475 3476 0
-3431 3476 0
-3476 3475 3431 0
-3476 -3432 0
-3476 3477 0
-3432 3477 0
-3477 3476 3432 0
-3478 1 0
-3478 28 0
3478 -1 -28 0
-3479 2 0
-3479 43 0
3479 -2 -43 0
-3480 3 0
-3480 21 0
3480 -3 -21 0
-3481 4 0
-3481 36 0
3481 -4 -36 0
-3482 5 0
-3482 45 0
3482 -5 -45 0
-3483 6 0
-3483 38 0
3483 -6 -38 0
-3484 7 0
-3484 14 0
3484 -7 -14 0
-3485 8 0
-3485 13 0
3485 -8 -13 0
-3486 9 0
-3486 41 0
3486 -9 -41 0
-3487 10 0
-3487 33 0
3487 -10 -33 0
-3488 11 0
-3488 42 0
3488 -11 -42 0
-3489 12 0
-3489 31 0
3489 -12 -31 0
-3490 13 0
-3490 8 0
3490 -13 -8 0
-3491 14 0
-3491 22 0
3491 -14 -22 0
-3492 15 0
-3492 37 0
3492 -15 -37 0
-3493 16 0
-3493 20 0
3493 -16 -20 0
-3494 17 0
-3494 25 0
3494 -17 -25 0
-3495 18 0
-3495 39 0
3495 -18 -39 0
-3496 19 0
-3496 46 0
3496 -19 -46 0
-3497 20 0
-3497 4 0
3497 -20 -4 0
-3498 21 0
-3498 3 0
3498 -21 -3 0
-3499 22 0
-3499 30 0
3499 -22 -30 0
-3500 23 0
-3500 29 0
3500 -23 -29 0
-3501 24 0
-3501 19 0
3501 -24 -19 0
-3502 25 0
-3502 32 0
3502 -25 -32 0
-3503 26 0
-3503 17 0
3503 -26 -17 0
-3504 27 0
-3504 47 0
3504 -27 -47 0
-3505 28 0
-3505 9 0
3505 -28 -9 0
-3506 29 0
-3506 23 0
3506 -29 -23 0
-3507 30 0
-3507 7 0
3507 -30 -7 0
-3508 31 0
-3508 11 0
3508 -31 -11 0
-3509 32 0
-3509 26 0
3509 -32 -26 0
-3510 33 0
-3510 40 0
3510 -33 -40 0
-3511 34 0
-3511 24 0
3511 -34 -24 0
-3512 36 0
-3512 16 0
3512 -36 -16 0
-3513 37 0
-3513 15 0
3513 -37 -15 0
-3514 38 0
-3514 18 0
3514 -38 -18 0
-3515 39 0
-3515 6 0
3515 -39 -6 0
-3516 40 0
-3516 44 0
3516 -40 -44 0
-3517 41 0
-3517 1 0
3517 -41 -1 0
-3518 42 0
-3518 12 0
3518 -42 -12 0
-3519 43 0
-3519 27 0
3519 -43 -27 0
-3520 44 0
-3520 10 0
3520 -44 -10 0
-3521 45 0
-3521 5 0
3521 -45 -5 0
-3522 46 0
-3522 34 0
3522 -46 -34 0
-3523 47 0
-3523 2 0
3523 -47 -2 0
-3478 -3479 0
-3478 3524 0
-3479 3524 0
-3524 3478 3479 0
-3524 -3480 0
-3524 3525 0
-3480 3525 0
-3525 3524 3480 0
-3525 -3481 0
-3525 3526 0
-3481 3526 0
-3526 3525 3481 0
-3526 -3482 0
-3526 3527 0
-3482 3527 0
-3527 3526 3482 0
-3527 -3483 0
-3527 3528 0
-3483 3528 0
-3528 3527 3483 0
-3528 -3484 0
-3528 3529 0
-3484 3529 0
-3529 3528 3484 0
-3529 -3485 0
-3529 3530 0
-3485 3530 0
-3530 3529 3485 0
-3530 -3486 0
-3530 3531 0
-3486 3531 0
-3531 3530 3486 0
-3531 -3487 0
-3531 3532 0
-3487 3532 0
-3532 3531 3487 0
-3532 -3488 0
-3532 3533 0
-3488 3533 0
-3533 3532 3488 0
-3533 -3489 0
-3533 3534 0
-3489 3534 0
-3534 3533 3489 0
-3534 -3490 0
-3534 3535 0
-3490 3535 0
-3535 3534 3490 0
-3535 -3491 0
-3535 3536 0
-3491 3536 0
-3536 3535 3491 0
-3536 -3492 0
-3536 3537 0
-3492 3537 0
-3537 3536 3492 0
-3537 -3493 0
-3537 3538 0
-3493 3538 0
-3538 3537 3493 0
-3538 -3494 0
-3538 3539 0
-3494 3539 0
-3539 3538 3494 0
-3539 -3495 0
-3539 3540 0
-3495 3540 0
-3540 3539 3495 0
-3540 -3496 0
-3540 3541 0
-3496 3541 0
-3541 3540 3496 0
-3541 -3497 0
-3541 3542 0
-3497 3542 0
-3542 3541 3497 0
-3542 -3498 0
-3542 3543 0
-3498 3543 0
-3543 3542 3498 0
-3543 -3499 0
-3543 3544 0
-3499 3544 0
-3544 3543 3499 0
-3544 -3500 0
-3544 3545 0
-3500 3545 0
-3545 3544 3500 0
-3545 -3501 0
-3545 3546 0
-3501 3546 0
-3546 3545 3501 0
-3546 -3502 0
-3546 3547 0
-3502 3547 0
-3547 3546 3502 0
-3547 -3503 0
-3547 3548 0
-3503 3548 0
-3548 3547 3503 0
-3548 -3504 0
-3548 3549 0
-3504 3549 0
-3549 3548 3504 0
-3549 -3505 0
-3549 3550 0
-3505 3550 0
-3550 3549 3505 0
-3550 -3506 0
-3550 3551 0
-3506 3551 0
-3551 3550 3506 0
-3551 -3507 0
-3551 3552 0
-3507 3552 0
-3552 3551 3507 0
-3552 -3508 0
-3552 3553 0
-3508 3553 0
-3553 3552 3508 0
-3553 -3509 0
-3553 3554 0
-3509 3554 0
-3554 3553 3509 0
-3554 -3510 0
-3554 3555 0
-3510 3555 0
-3555 3554 3510 0
-3555 -3511 0
-3555 3556 0
-3511 3556 0
-3556 3555 3511 0
-3556 -3512 0
-3556 3557 0
-3512 3557 0
-3557 3556 3512 0
-3557 -3513 0
-3557 3558 0
-3513 3558 0
-3558 3557 3513 0
-3558 -3514 0
-3558 3559 0
-3514 3559 0
-3559 3558 3514 0
-3559 -3515 0
-3559 3560 0
-3515 3560 0
-3560 3559 3515 0
-3560 -3516 0
-3560 3561 0
-3516 3561 0
-3561 3560 3516 0
-3561 -3517 0
-3561 3562 0
-3517 3562 0
-3562 3561 3517 0
-3562 -3518 0
-3562 3563 0
-3518 3563 0
-3563 3562 3518 0
-3563 -3519 0
-3563 3564 0
-3519 3564 0
-3564 3563 3519 0
-3564 -3520 0
-3564 3565 0
-3520 3565 0
-3565 3564 3520 0
-3565 -3521 0
-3565 3566 0
-3521 3566 0
-3566 3565 3521 0
-3566 -3522 0
-3566 3567 0
-3522 3567 0
-3567 3566 3522 0
-3567 -3523 0
-3567 3568 0
-3523 3568 0
-3568 3567 3523 0
-3569 1 0
-3569 29 0
3569 -1 -29 0
-3570 2 0
-3570 47 0
3570 -2 -47 0
-3571 3 0
-3571 22 0
3571 -3 -22 0
-3572 4 0
-3572 45 0
3572 -4 -45 0
-3573 5 0
-3573 20 0
3573 -5 -20 0
-3574 6 0
-3574 39 0
3574 -6 -39 0
-3575 7 0
-3575 15 0
3575 -7 -15 0
-3576 8 0
-3576 28 0
3576 -8 -28 0
-3577 9 0
-3577 13 0
3577 -9 -13 0
-3578 10 0
-3578 44 0
3578 -10 -44 0
-3579 11 0
-3579 43 0
3579 -11 -43 0
-3580 12 0
-3580 42 0
3580 -12 -42 0
-3581 13 0
-3581 9 0
3581 -13 -9 0
-3582 14 0
-3582 37 0
3582 -14 -37 0
-3583 15 0
-3583 7 0
3583 -15 -7 0
-3584 16 0
-3584 35 0
3584 -16 -35 0
-3585 17 0
-3585 26 0
3585 -17 -26 0
-3586 18 0
-3586 46 0
3586 -18 -46 0
-3587 19 0
-3587 24 0
3587 -19 -24 0
-3588 20 0
-3588 5 0
3588 -20 -5 0
-3589 21 0
-3589 14 0
3589 -21 -14 0
-3590 22 0
-3590 3 0
3590 -22 -3 0
-3591 23 0
-3591 41 0
3591 -23 -41 0
-3592 24 0
-3592 34 0
3592 -24 -34 0
-3593 25 0
-3593 33 0
3593 -25 -33 0
-3594 26 0
-3594 32 0
3594 -26 -32 0
-3595 27 0
-3595 31 0
3595 -27 -31 0
-3596 28 0
-3596 23 0
3596 -28 -23 0
-3597 29 0
-3597 1 0
3597 -29 -1 0
-3598 30 0
-3598 21 0
3598 -30 -21 0
-3599 31 0
-3599 12 0
3599 -31 -12 0
-3600 32 0
-3600 40 0
3600 -32 -40 0
-3601 33 0
-3601 10 0
3601 -33 -10 0
-3602 34 0
-3602 38 0
3602 -34 -38 0
-3603 35 0
-3603 4 0
3603 -35 -4 0
-3604 37 0
-3604 30 0
3604 -37 -30 0
-3605 38 0
-3605 19 0
3605 -38 -19 0
-3606 39 0
-3606 18 0
3606 -39 -18 0
-3607 40 0
-3607 17 0
3607 -40 -17 0
-3608 41 0
-3608 8 0
3608 -41 -8 0
-3609 42 0
-3609 27 0
3609 -42 -27 0
-3610 43 0
-3610 2 0
3610 -43 -2 0
-3611 44 0
-3611 25 0
3611 -44 -25 0
-3612 45 0
-3612 16 0
3612 -45 -16 0
-3613 46 0
-3613 6 0
3613 -46 -6 0
-3614 47 0
-3614 11 0
3614 -47 -11 0
-3569 -3570 0
-3569 3615 0
-3570 3615 0
-3615 3569 3570 0
-3615 -3571 0
-3615 3616 0
-3571 3616 0
-3616 3615 3571 0
-3616 -3572 0
-3616 3617 0
-3572 3617 0
-3617 3616 3572 0
-3617 -3573 0
-3617 3618 0
-3573 3618 0
-3618 3617 3573 0
-3618 -3574 0
-3618 3619 0
-3574 3619 0
-3619 3618 3574 0
-3619 -3575 0
-3619 3620 0
-3575 3620 0
-3620 3619 3575 0
-3620 -3576 0
-3620 3621 0
-3576 3621 0
-3621 3620 3576 0
-3621 -3577 0
-3621 3622 0
-3577 3622 0
-3622 3621 3577 0
-3622 -3578 0
-3622 3623 0
-3578 3623 0
-3623 3622 3578 0
-3623 -3579 0
-3623 3624 0
-3579 3624 0
-3624 3623 3579 0
-3624 -3580 0
-3624 3625 0
-3580 3625 0
-3625 3624 3580 0
-3625 -3581 0
-3625 3626 0
-3581 3626 0
-3626 3625 3581 0
-3626 -3582 0
-3626 3627 0
-3582 3627 0
-3627 3626 3582 0
-3627 -3583 0
-3627 3628 0
-3583 3628 0
-3628 3627 3583 0
-3628 -3584 0
-3628 3629 0
-3584 3629 0
-3629 3628 3584 0
-3629 -3585 0
-3629 3630 0
-3585 3630 0
-3630 3629 3585 0
-3630 -3586 0
-3630 3631 0
-3586 3631 0
-3631 3630 3586 0
-3631 -3587 0
-3631 3632 0
-3587 3632 0
-3632 3631 3587 0
-3632 -3588 0
-3632 3633 0
-3588 3633 0
-3633 3632 3588 0
-3633 -3589 0
-3633 3634 0
-3589 3634 0
-3634 3633 3589 0
-3634 -3590 0
-3634 3635 0
-3590 3635 0
-3635 3634 3590 0
-3635 -3591 0
-3635 3636 0
-3591 3636 0
-3636 3635 3591 0
-3636 -3592 0
-3636 3637 0
-3592 3637 0
-3637 3636 3592 0
-3637 -3593 0
-3637 3638 0
-3593 3638 0
-3638 3637 3593 0
-3638 -3594 0
-3638 3639 0
-3594 3639 0
-3639 3638 3594 0
-3639 -3595 0
-3639 3640 0
-3595 3640 0
-3640 3639 3595 0
-3640 -3596 0
-3640 3641 0
-3596 3641 0
-3641 3640 3596 0
-3641 -3597 0
-3641 3642 0
-3597 3642 0
-3642 3641 3597 0
-3642 -3598 0
-3642 3643 0
-3598 3643 0
-3643 3642 3598 0
-3643 -3599 0
-3643 3644 0
-3599 3644 0
-3644 3643 3599 0
-3644 -3600 0
-3644 3645 0
-3600 3645 0
-3645 3644 3600 0
-3645 -3601 0
-3645 3646 0
-3601 3646 0
-3646 3645 3601 0
-3646 -3602 0
-3646 3647 0
-3602 3647 0
-3647 3646 3602 0
-3647 -3603 0
-3647 3648 0
-3603 3648 0
-3648 3647 3603 0
-3648 -3604 0
-3648 3649 0
-3604 3649 0
-3649 3648 3604 0
-3649 -3605 0
-3649 3650 0
-3605 3650 0
-3650 3649 3605 0
-3650 -3606 0
-3650 3651 0
-3606 3651 0
-3651 3650 3606 0
-3651 -3607 0
-3651 3652 0
-3607 3652 0
-3652 3651 3607 0
-3652 -3608 0
-3652 3653 0
-3608 3653 0
-3653 3652 3608 0
-3653 -3609 0
-3653 3654 0
-3609 3654 0
-3654 3653 3609 0
-3654 -3610 0
-3654 3655 0
-3610 3655 0
-3655 3654 3610 0
-3655 -3611 0
-3655 3656 0
-3611 3656 0
-3656 3655 3611 0
-3656 -3612 0
-3656 3657 0
-3612 3657 0
-3657 3656 3612 0
-3657 -3613 0
-3657 3658 0
-3613 3658 0
-3658 3657 3613 0
-3658 -3614 0
-3658 3659 0
-3614 3659 0
-3659 3658 3614 0
-3660 1 0
-3660 30 0
3660 -1 -30 0
-3661 2 0
-3661 17 0
3661 -2 -17 0
-3662 3 0
-3662 23 0
3662 -3 -23 0
-3663 4 0
-3663 7 0
3663 -4 -7 0
-3664 5 0
-3664 21 0
3664 -5 -21 0
-3665 6 0
-3665 40 0
3665 -6 -40 0
-3666 7 0
-3666 16 0
3666 -7 -16 0
-3667 8 0
-3667 15 0
3667 -8 -15 0
-3668 9 0
-3668 14 0
3668 -9 -14 0
-3669 10 0
-3669 6 0
3669 -10 -6 0
-3670 11 0
-3670 44 0
3670 -11 -44 0
-3671 12 0
-3671 33 0
3671 -12 -33 0
-3672 13 0
-3672 45 0
3672 -13 -45 0
-3673 14 0
-3673 1 0
3673 -14 -1 0
-3674 15 0
-3674 8 0
3674 -15 -8 0
-3675 16 0
-3675 22 0
3675 -16 -22 0
-3676 17 0
-3676 27 0
3676 -17 -27 0
-3677 18 0
-3677 10 0
3677 -18 -10 0
-3678 19 0
-3678 25 0
3678 -19 -25 0
-3679 20 0
-3679 41 0
3679 -20 -41 0
-3680 21 0
-3680 5 0
3680 -21 -5 0
-3681 22 0
-3681 4 0
3681 -22 -4 0
-3682 23 0
-3682 3 0
3682 -23 -3 0
-3683 24 0
-3683 31 0
3683 -24 -31 0
-3684 25 0
-3684 34 0
3684 -25 -34 0
-3685 26 0
-3685 19 0
3685 -26 -19 0
-3686 27 0
-3686 32 0
3686 -27 -32 0
-3687 28 0
-3687 20 0
3687 -28 -20 0
-3688 29 0
-3688 35 0
3688 -29 -35 0
-3689 30 0
-3689 9 0
3689 -30 -9 0
-3690 31 0
-3690 46 0
3690 -31 -46 0
-3691 32 0
-3691 2 0
3691 -32 -2 0
-3692 33 0
-3692 11 0
3692 -33 -11 0
-3693 34 0
-3693 26 0
3693 -34 -26 0
-3694 35 0
-3694 29 0
3694 -35 -29 0
-3695 36 0
-3695 28 0
3695 -36 -28 0
-3696 38 0
-3696 47 0
3696 -38 -47 0
-3697 39 0
-3697 43 0
3697 -39 -43 0
-3698 40 0
-3698 18 0
3698 -40 -18 0
-3699 41 0
-3699 36 0
3699 -41 -36 0
-3700 42 0
-3700 24 0
3700 -42 -24 0
-3701 43 0
-3701 38 0
3701 -43 -38 0
-3702 44 0
-3702 12 0
3702 -44 -12 0
-3703 45 0
-3703 13 0
3703 -45 -13 0
-3704 46 0
-3704 42 0
3704 -46 -42 0
-3705 47 0
-3705 39 0
3705 -47 -39 0
-3660 -3661 0
-3660 3706 0
-3661 3706 0
-3706 3660 3661 0
-3706 -3662 0
-3706 3707 0
-3662 3707 0
-3707 3706 3662 0
-3707 -3663 0
-3707 3708 0
-3663 3708 0
-3708 3707 3663 0
-3708 -3664 0
-3708 3709 0
-3664 3709 0
-3709 3708 3664 0
-3709 -3665 0
-3709 3710 0
-3665 3710 0
-3710 3709 3665 0
-3710 -3666 0
-3710 3711 0
-3666 3711 0
-3711 3710 3666 0
-3711 -3667 0
-3711 3712 0
-3667 3712 0
-3712 3711 3667 0
-3712 -3668 0
-3712 3713 0
-3668 3713 0
-3713 3712 3668 0
-3713 -3669 0
-3713 3714 0
-3669 3714 0
-3714 3713 3669 0
-3714 -3670 0
-3714 3715 0
-3670 3715 0
-3715 3714 3670 0
-3715 -3671 0
-3715 3716 0
-3671 3716 0
-3716 3715 3671 0
-3716 -3672 0
-3716 3717 0
-3672 3717 0
-3717 3716 3672 0
-3717 -3673 0
-3717 3718 0
-3673 3718 0
-3718 3717 3673 0
-3718 -3674 0
-3718 3719 0
-3674 3719 0
-3719 3718 3674 0
-3719 -3675 0
-3719 3720 0
-3675 3720 0
-3720 3719 3675 0
-3720 -3676 0
-3720 3721 0
-3676 3721 0
-3721 3720 3676 0
-3721 -3677 0
-3721 3722 0
-3677 3722 0
-3722 3721 3677 0
-3722 -3678 0
-3722 3723 0
-3678 3723 0
-3723 3722 3678 0
-3723 -3679 0
-3723 3724 0
-3679 3724 0
-3724 3723 3679 0
-3724 -3680 0
-3724 3725 0
-3680 3725 0
-3725 3724 3680 0
-3725 -3681 0
-3725 3726 0
-3681 3726 0
-3726 3725 3681 0
-3726 -3682 0
-3726 3727 0
-3682 3727 0
-3727 3726 3682 0
-3727 -3683 0
-3727 3728 0
-3683 3728 0
-3728 3727 3683 0
-3728 -3684 0
-3728 3729 0
-3684 3729 0
-3729 3728 3684 0
-3729 -3685 0
-3729 3730 0
-3685 3730 0
-3730 3729 3685 0
-3730 -3686 0
-3730 3731 0
-3686 3731 0
-3731 3730 3686 0
-3731 -3687 0
-3731 3732 0
-3687 3732 0
-3732 3731 3687 0
-3732 -3688 0
-3732 3733 0
-3688 3733 0
-3733 3732 3688 0
-3733 -3689 0
-3733 3734 0
-3689 3734 0
-3734 3733 3689 0
-3734 -3690 0
-3734 3735 0
-3690 3735 0
-3735 3734 3690 0
-3735 -3691 0
-3735 3736 0
-3691 3736 0
-3736 3735 3691 0
-3736 -3692 0
-3736 3737 0
-3692 3737 0
-3737 3736 3692 0
-3737 -3693 0
-3737 3738 0
-3693 3738 0
-3738 3737 3693 0
-3738 -3694 0
-3738 3739 0
-3694 3739 0
-3739 3738 3694 0
-3739 -3695 0
-3739 3740 0
-3695 3740 0
-3740 3739 3695 0
-3740 -3696 0
-3740 3741 0
-3696 3741 0
-3741 3740 3696 0
-3741 -3697 0
-3741 3742 0
-3697 3742 0
-3742 3741 3697 0
-3742 -3698 0
-3742 3743 0
-3698 3743 0
-3743 3742 3698 0
-3743 -3699 0
-3743 3744 0
-3699 3744 0
-3744 3743 3699 0
-3744 -3700 0
-3744 3745 0
-3700 3745 0
-3745 3744 3700 0
-3745 -3701 0
-3745 3746 0
-3701 3746 0
-3746 3745 3701 0
-3746 -3702 0
-3746 3747 0
-3702 3747 0
-3747 3746 3702 0
-3747 -3703 0
-3747 3748 0
-3703 3748 0
-3748 3747 3703 0
-3748 -3704 0
-3748 3749 0
-3704 3749 0
-3749 3748 3704 0
-3749 -3705 0
-3749 3750 0
-3705 3750 0
-3750 3749 3705 0
-3751 1 0
-3751 47 0
3751 -1 -47 0
-3752 2 0
-3752 28 0
3752 -2 -28 0
-3753 3 0
-3753 25 0
3753 -3 -25 0
-3754 4 0
-3754 39 0
3754 -4 -39 0
-3755 5 0
-3755 46 0
3755 -5 -46 0
-3756 6 0
-3756 36 0
3756 -6 -36 0
-3757 7 0
-3757 44 0
3757 -7 -44 0
-3758 8 0
-3758 43 0
3758 -8 -43 0
-3759 9 0
-3759 42 0
3759 -9 -42 0
-3760 10 0
-3760 14 0
3760 -10 -14 0
-3761 11 0
-3761 13 0
3761 -11 -13 0
-3762 12 0
-3762 41 0
3762 -12 -41 0
-3763 13 0
-3763 11 0
3763 -13 -11 0
-3764 14 0
-3764 26 0
3764 -14 -26 0
-3765 15 0
-3765 40 0
3765 -15 -40 0
-3766 16 0
-3766 24 0
3766 -16 -24 0
-3767 17 0
-3767 22 0
3767 -17 -22 0
-3768 18 0
-3768 45 0
3768 -18 -45 0
-3769 19 0
-3769 20 0
3769 -19 -20 0
-3770 20 0
-3770 34 0
3770 -20 -34 0
-3771 21 0
-3771 33 0
3771 -21 -33 0
-3772 22 0
-3772 32 0
3772 -22 -32 0
-3773 23 0
-3773 31 0
3773 -23 -31 0
-3774 24 0
-3774 4 0
3774 -24 -4 0
-3775 25 0
-3775 3 0
3775 -25 -3 0
-3776 26 0
-3776 30 0
3776 -26 -30 0
-3777 27 0
-3777 29 0
3777 -27 -29 0
-3778 28 0
-3778 12 0
3778 -28 -12 0
-3779 29 0
-3779 27 0
3779 -29 -27 0
-3780 30 0
-3780 10 0
3780 -30 -10 0
-3781 31 0
-3781 9 0
3781 -31 -9 0
-3782 32 0
-3782 37 0
3782 -32 -37 0
-3783 33 0
-3783 7 0
3783 -33 -7 0
-3784 34 0
-3784 35 0
3784 -34 -35 0
-3785 35 0
-3785 19 0
3785 -35 -19 0
-3786 36 0
-3786 18 0
3786 -36 -18 0
-3787 37 0
-3787 17 0
3787 -37 -17 0
-3788 39 0
-3788 16 0
3788 -39 -16 0
-3789 40 0
-3789 15 0
3789 -40 -15 0
-3790 41 0
-3790 2 0
3790 -41 -2 0
-3791 42 0
-3791 23 0
3791 -42 -23 0
-3792 43 0
-3792 1 0
3792 -43 -1 0
-3793 44 0
-3793 21 0
3793 -44 -21 0
-3794 45 0
-3794 6 0
3794 -45 -6 0
-3795 46 0
-3795 5 0
3795 -46 -5 0
-3796 47 0
-3796 8 0
3796 -47 -8 0
-3751 -3752 0
-3751 3797 0
-3752 3797 0
-3797 3751 3752 0
-3797 -3753 0
-3797 3798 0
-3753 3798 0
-3798 3797 3753 0
-3798 -3754 0
-3798 3799 0
-3754 3799 0
-3799 3798 3754 0
-3799 -3755 0
-3799 3800 0
-3755 3800 0
-3800 3799 3755 0
-3800 -3756 0
-3800 3801 0
-3756 3801 0
-3801 3800 3756 0
-3801 -3757 0
-3801 3802 0
-3757 3802 0
-3802 3801 3757 0
-3802 -3758 0
-3802 3803 0
-3758 3803 0
-3803 3802 3758 0
-3803 -3759 0
-3803 3804 0
-3759 3804 0
-3804 3803 3759 0
-3804 -3760 0
-3804 3805 0
-3760 3805 0
-3805 3804 3760 0
-3805 -3761 0
-3805 3806 0
-3761 3806 0
-3806 3805 3761 0
-3806 -3762 0
-3806 3807 0
-3762 3807 0
-3807 3806 3762 0
-3807 -3763 0
-3807 3808 0
-3763 3808 0
-3808 3807 3763 0
-3808 -3764 0
-3808 3809 0
-3764 3809 0
-3809 3808 3764 0
-3809 -3765 0
-3809 3810 0
-3765 3810 0
-3810 3809 3765 0
-3810 -3766 0
-3810 3811 0
-3766 3811 0
-3811 3810 3766 0
-3811 -3767 0
-3811 3812 0
-3767 3812 0
-3812 3811 3767 0
-3812 -3768 0
-3812 3813 0
-3768 3813 0
-3813 3812 3768 0
-3813 -3769 0
-3813 3814 0
-3769 3814 0
-3814 3813 3769 0
-3814 -3770 0
-3814 3815 0
-3770 3815 0
-3815 3814 3770 0
-3815 -3771 0
-3815 3816 0
-3771 3816 0
-3816 3815 3771 0
-3816 -3772 0
-3816 3817 0
-3772 3817 0
-3817 3816 3772 0
-3817 -3773 0
-3817 3818 0
-3773 3818 0
-3818 3817 3773 0
-3818 -3774 0
-3818 3819 0
-3774 3819 0
-3819 3818 3774 0
-3819 -3775 0
-3819 3820 0
-3775 3820 0
-3820 3819 3775 0
-3820 -3776 0
-3820 3821 0
-3776 3821 0
-3821 3820 3776 0
-3821 -3777 0
-3821 3822 0
-3777 3822 0
-3822 3821 3777 0
-3822 -3778 0
-3822 3823 0
-3778 3823 0
-3823 3822 3778 0
-3823 -3779 0
-3823 3824 0
-3779 3824 0
-3824 3823 3779 0
-3824 -3780 0
-3824 3825 0
-3780 3825 0
-3825 3824 3780 0
-3825 -3781 0
-3825 3826 0
-3781 3826 0
-3826 3825 3781 0
-3826 -3782 0
-3826 3827 0
-3782 3827 0
-3827 3826 3782 0
-3827 -3783 0
-3827 3828 0
-3783 3828 0
-3828 3827 3783 0
-3828 -3784 0
-3828 3829 0
-3784 3829 0
-3829 3828 3784 0
-3829 -3785 0
-3829 3830 0
-3785 3830 0
-3830 3829 3785 0
-3830 -3786 0
-3830 3831 0
-3786 3831 0
-3831 3830 3786 0
-3831 -3787 0
-3831 3832 0
-3787 3832 0
-3832 3831 3787 0
-3832 -3788 0
-3832 3833 0
-3788 3833 0
-3833 3832 3788 0
-3833 -3789 0
-3833 3834 0
-3789 3834 0
-3834 3833 3789 0
-3834 -3790 0
-3834 3835 0
-3790 3835 0
-3835 3834 3790 0
-3835 -3791 0
-3835 3836 0
-3791 3836 0
-3836 3835 3791 0
-3836 -3792 0
-3836 3837 0
-3792 3837 0
-3837 3836 3792 0
-3837 -3793 0
-3837 3838 0
-3793 3838 0
-3838 3837 3793 0
-3838 -3794 0
-3838 3839 0
-3794 3839 0
-3839 3838 3794 0
-3839 -3795 0
-3839 3840 0
-3795 3840 0
-3840 3839 3795 0
-3840 -3796 0
-3840 3841 0
-3796 3841 0
-3841 3840 3796 0
-3842 1 0
-3842 31 0
3842 -1 -31 0
-3843 2 0
-3843 29 0
3843 -2 -29 0
-3844 3 0
-3844 26 0
3844 -3 -26 0
-3845 4 0
-3845 46 0
3845 -4 -46 0
-3846 5 0
-3846 24 0
3846 -5 -24 0
-3847 6 0
-3847 45 0
3847 -6 -45 0
-3848 7 0
-3848 17 0
3848 -7 -17 0
-3849 8 0
-3849 47 0
3849 -8 -47 0
-3850 9 0
-3850 43 0
3850 -9 -43 0
-3851 10 0
-3851 15 0
3851 -10 -15 0
-3852 11 0
-3852 28 0
3852 -11 -28 0
-3853 12 0
-3853 13 0
3853 -12 -13 0
-3854 13 0
-3854 12 0
3854 -13 -12 0
-3855 14 0
-3855 40 0
3855 -14 -40 0
-3856 15 0
-3856 10 0
3856 -15 -10 0
-3857 16 0
-3857 38 0
3857 -16 -38 0
-3858 17 0
-3858 37 0
3858 -17 -37 0
-3859 18 0
-3859 20 0
3859 -18 -20 0
-3860 19 0
-3860 35 0
3860 -19 -35 0
-3861 20 0
-3861 6 0
3861 -20 -6 0
-3862 21 0
-3862 44 0
3862 -21 -44 0
-3863 22 0
-3863 33 0
3863 -22 -33 0
-3864 23 0
-3864 42 0
3864 -23 -42 0
-3865 24 0
-3865 5 0
3865 -24 -5 0
-3866 25 0
-3866 14 0
3866 -25 -14 0
-3867 26 0
-3867 3 0
3867 -26 -3 0
-3868 27 0
-3868 41 0
3868 -27 -41 0
-3869 28 0
-3869 27 0
3869 -28 -27 0
-3870 29 0
-3870 2 0
3870 -29 -2 0
-3871 30 0
-3871 25 0
3871 -30 -25 0
-3872 31 0
-3872 23 0
3872 -31 -23 0
-3873 32 0
-3873 7 0
3873 -32 -7 0
-3874 33 0
-3874 21 0
3874 -33 -21 0
-3875 34 0
-3875 36 0
3875 -34 -36 0
-3876 35 0
-3876 34 0
3876 -35 -34 0
-3877 36 0
-3877 19 0
3877 -36 -19 0
-3878 37 0
-3878 32 0
3878 -37 -32 0
-3879 38 0
-3879 4 0
3879 -38 -4 0
-3880 40 0
-3880 30 0
3880 -40 -30 0
-3881 41 0
-3881 11 0
3881 -41 -11 0
-3882 42 0
-3882 1 0
3882 -42 -1 0
-3883 43 0
-3883 8 0
3883 -43 -8 0
-3884 44 0
-3884 22 0
3884 -44 -22 0
-3885 45 0
-3885 18 0
3885 -45 -18 0
-3886 46 0
-3886 16 0
3886 -46 -16 0
-3887 47 0
-3887 9 0
3887 -47 -9 0
-3842 -3843 0
-3842 3888 0
-3843 3888 0
-3888 3842 3843 0
-3888 -3844 0
-3888 3889 0
-3844 3889 0
-3889 3888 3844 0
-3889 -3845 0
-3889 3890 0
-3845 3890 0
-3890 3889 3845 0
-3890 -3846 0
-3890 3891 0
-3846 3891 0
-3891 3890 3846 0
-3891 -3847 0
-3891 3892 0
-3847 3892 0
-3892 3891 3847 0
-3892 -3848 0
-3892 3893 0
-3848 3893 0
-3893 3892 3848 0
-3893 -3849 0
-3893 3894 0
-3849 3894 0
-3894 3893 3849 0
-3894 -3850 0
-3894 3895 0
-3850 3895 0
-3895 3894 3850 0
-3895 -3851 0
-3895 3896 0
-3851 3896 0
-3896 3895 3851 0
-3896 -3852 0
-3896 3897 0
-3852 3897 0
-3897 3896 3852 0
-3897 -3853 0
-3897 3898 0
-3853 3898 0
-3898 3897 3853 0
-3898 -3854 0
-3898 3899 0
-3854 3899 0
-3899 3898 3854 0
-3899 -3855 0
-3899 3900 0
-3855 3900 0
-3900 3899 3855 0
-3900 -3856 0
-3900 3901 0
-3856 3901 0
-3901 3900 3856 0
-3901 -3857 0
-3901 3902 0
-3857 3902 0
-3902 3901 3857 0
-3902 -3858 0
-3902 3903 0
-3858 3903 0
-3903 3902 3858 0
-3903 -3859 0
-3903 3904 0
-3859 3904 0
-3904 3903 3859 0
-3904 -3860 0
-3904 3905 0
-3860 3905 0
-3905 3904 3860 0
-3905 -3861 0
-3905 3906 0
-3861 3906 0
-3906 3905 3861 0
-3906 -3862 0
-3906 3907 0
-3862 3907 0
-3907 3906 3862 0
-3907 -3863 0
-3907 3908 0
-3863 3908 0
-3908 3907 3863 0
-3908 -3864 0
-3908 3909 0
-3864 3909 0
-3909 3908 3864 0
-3909 -3865 0
-3909 3910 0
-3865 3910 0
-3910 3909 3865 0
-3910 -3866 0
-3910 3911 0
-3866 3911 0
-3911 3910 3866 0
-3911 -3867 0
-3911 3912 0
-3867 3912 0
-3912 3911 3867 0
-3912 -3868 0
-3912 3913 0
-3868 3913 0
-3913 3912 3868 0
-3913 -3869 0
-3913 3914 0
-3869 3914 0
-3914 3913 3869 0
-3914 -3870 0
-3914 3915 0
-3870 3915 0
-3915 3914 3870 0
-3915 -3871 0
-3915 3916 0
-3871 3916 0
-3916 3915 3871 0
-3916 -3872 0
-3916 3917 0
-3872 3917 0
-3917 3916 3872 0
-3917 -3873 0
-3917 3918 0
-3873 3918 0
-3918 3917 3873 0
-3918 -3874 0
-3918 3919 0
-3874 3919 0
-3919 3918 3874 0
-3919 -3875 0
-3919 3920 0
-3875 3920 0
-3920 3919 3875 0
-3920 -3876 0
-3920 3921 0
-3876 3921 0
-3921 3920 3876 0
-3921 -3877 0
-3921 3922 0
-3877 3922 0
-3922 3921 3877 0
-3922 -3878 0
-3922 3923 0
-3878 3923 0
-3923 3922 3878 0
-3923 -3879 0
-3923 3924 0
-3879 3924 0
-3924 3923 3879 0
-3924 -3880 0
-3924 3925 0
-3880 3925 0
-3925 3924 3880 0
-3925 -3881 0
-3925 3926 0
-3881 3926 0
-3926 3925 3881 0
-3926 -3882 0
-3926 3927 0
-3882 3927 0
-3927 3926 3882 0
-3927 -3883 0
-3927 3928 0
-3883 3928 0
-3928 3927 3883 0
-3928 -3884 0
-3928 3929 0
-3884 3929 0
-3929 3928 3884 0
-3929 -3885 0
-3929 3930 0
-3885 3930 0
-3930 3929 3885 0
-3930 -3886 0
-3930 3931 0
-3886 3931 0
-3931 3930 3886 0
-3931 -3887 0
-3931 3932 0
-3887 3932 0
-3932 3931 3887 0
-3933 1 0
-3933 32 0
3933 -1 -32 0
-3934 2 0
-3934 30 0
3934 -2 -30 0
-3935 3 0
-3935 27 0
3935 -3 -27 0
-3936 4 0
-3936 10 0
3936 -4 -10 0
-3937 5 0
-3937 25 0
3937 -5 -25 0
-3938 6 0
-3938 7 0
3938 -6 -7 0
-3939 7 0
-3939 18 0
3939 -7 -18 0
-3940 8 0
-3940 17 0
3940 -8 -17 0
-3941 9 0
-3941 44 0
3941 -9 -44 0
-3942 10 0
-3942 16 0
3942 -10 -16 0
-3943 11 0
-3943 15 0
3943 -11 -15 0
-3944 12 0
-3944 14 0
3944 -12 -14 0
-3945 13 0
-3945 46 0
3945 -13 -46 0
-3946 14 0
-3946 2 0
3946 -14 -2 0
-3947 15 0
-3947 11 0
3947 -15 -11 0
-3948 16 0
-3948 26 0
3948 -16 -26 0
-3949 17 0
-3949 1 0
3949 -17 -1 0
-3950 18 0
-3950 21 0
3950 -18 -21 0
-3951 19 0
-3951 22 0
3951 -19 -22 0
-3952 20 0
-3952 42 0
3952 -20 -42 0
-3953 21 0
-3953 6 0
3953 -21 -6 0
-3954 22 0
-3954 34 0
3954 -22 -34 0
-3955 23 0
-3955 33 0
3955 -23 -33 0
-3956 24 0
-3956 41 0
3956 -24 -41 0
-3957 25 0
-3957 5 0
3957 -25 -5 0
-3958 26 0
-3958 4 0
3958 -26 -4 0
-3959 27 0
-3959 3 0
3959 -27 -3 0
-3960 28 0
-3960 24 0
3960 -28 -24 0
-3961 29 0
-3961 38 0
3961 -29 -38 0
-3962 30 0
-3962 12 0
3962 -30 -12 0
-3963 31 0
-3963 20 0
3963 -31 -20 0
-3964 32 0
-3964 8 0
3964 -32 -8 0
-3965 33 0
-3965 9 0
3965 -33 -9 0
-3966 34 0
-3966 37 0
3966 -34 -37 0
-3967 35 0
-3967 31 0
3967 -35 -31 0
-3968 36 0
-3968 47 0
3968 -36 -47 0
-3969 37 0
-3969 19 0
3969 -37 -19 0
-3970 38 0
-3970 29 0
3970 -38 -29 0
-3971 39 0
-3971 28 0
3971 -39 -28 0
-3972 41 0
-3972 39 0
3972 -41 -39 0
-3973 42 0
-3973 35 0
3973 -42 -35 0
-3974 43 0
-3974 36 0
3974 -43 -36 0
-3975 44 0
-3975 23 0
3975 -44 -23 0
-3976 45 0
-3976 43 0
3976 -45 -43 0
-3977 46 0
-3977 13 0
3977 -46 -13 0
-3978 47 0
-3978 45 0
3978 -47 -45 0
-3933 -3934 0
-3933 3979 0
-3934 3979 0
-3979 3933 3934 0
-3979 -3935 0
-3979 3980 0
-3935 3980 0
-3980 3979 3935 0
-3980 -3936 0
-3980 3981 0
-3936 3981 0
-3981 3980 3936 0
-3981 -3937 0
-3981 3982 0
-3937 3982 0
-3982 3981 3937 0
-3982 -3938 0
-3982 3983 0
-3938 3983 0
-3983 3982 3938 0
-3983 -3939 0
-3983 3984 0
-3939 3984 0
-3984 3983 3939 0
-3984 -3940 0
-3984 3985 0
-3940 3985 0
-3985 3984 3940 0
-3985 -3941 0
-3985 3986 0
-3941 3986 0
-3986 3985 3941 0
-3986 -3942 0
-3986 3987 0
-3942 3987 0
-3987 3986 3942 0
-3987 -3943 0
-3987 3988 0
-3943 3988 0
-3988 3987 3943 0
-3988 -3944 0
-3988 3989 0
-3944 3989 0
-3989 3988 3944 0
-3989 -3945 0
-3989 3990 0
-3945 3990 0
-3990 3989 3945 0
-3990 -3946 0
-3990 3991 0
-3946 3991 0
-3991 3990 3946 0
-3991 -3947 0
-3991 3992 0
-3947 3992 0
-3992 3991 3947 0
-3992 -3948 0
-3992 3993 0
-3948 3993 0
-3993 3992 3948 0
-3993 -3949 0
-3993 3994 0
-3949 3994 0
-3994 3993 3949 0
-3994 -3950 0
-3994 3995 0
-3950 3995 0
-3995 3994 3950 0
-3995 -3951 0
-3995 3996 0
-3951 3996 0
-3996 3995 3951 0
-3996 -3952 0
-3996 3997 0
-3952 3997 0
-3997 3996 3952 0
-3997 -3953 0
-3997 3998 0
-3953 3998 0
-3998 3997 3953 0
-3998 -3954 0
-3998 3999 0
-3954 3999 0
-3999 3998 3954 0
-3999 -3955 0
-3999 4000 0
-3955 4000 0
-4000 3999 3955 0
-4000 -3956 0
-4000 4001 0
-3956 4001 0
-4001 4000 3956 0
-4001 -3957 0
-4001 4002 0
-3957 4002 0
-4002 4001 3957 0
-4002 -3958 0
-4002 4003 0
-3958 4003 0
-4003 4002 3958 0
-4003 -3959 0
-4003 4004 0
-3959 4004 0
-4004 4003 3959 0
-4004 -3960 0
-4004 4005 0
-3960 4005 0
-4005 4004 3960 0
-4005 -3961 0
-4005 4006 0
-3961 4006 0
-4006 4005 3961 0
-4006 -3962 0
-4006 4007 0
-3962 4007 0
-4007 4006 3962 0
-4007 -3963 0
-4007 4008 0
-3963 4008 0
-4008 4007 3963 0
-4008 -3964 0
-4008 4009 0
-3964 4009 0
-4009 4008 3964 0
-4009 -3965 0
-4009 4010 0
-3965 4010 0
-4010 4009 3965 0
-4010 -3966 0
-4010 4011 0
-3966 4011 0
-4011 4010 3966 0
-4011 -3967 0
-4011 4012 0
-3967 4012 0
-4012 4011 3967 0
-4012 -3968 0
-4012 4013 0
-3968 4013 0
-4013 4012 3968 0
-4013 -3969 0
-4013 4014 0
-3969 4014 0
-4014 4013 3969 0
-4014 -3970 0
-4014 4015 0
-3970 4015 0
-4015 4014 3970 0
-4015 -3971 0
-4015 4016 0
-3971 4016 0
-4016 4015 3971 0
-4016 -3972 0
-4016 4017 0
-3972 4017 0
-4017 4016 3972 0
-4017 -3973 0
-4017 4018 0
-3973 4018 0
-4018 4017 3973 0
-4018 -3974 0
-4018 4019 0
-3974 4019 0
-4019 4018 3974 0
-4019 -3975 0
-4019 4020 0
-3975 4020 0
-4020 4019 3975 0
-4020 -3976 0
-4020 4021 0
-3976 4021 0
-4021 4020 3976 0
-4021 -3977 0
-4021 4022 0
-3977 4022 0
-4022 4021 3977 0
-4022 -3978 0
-4022 4023 0
-3978 4023 0
-4023 4022 3978 0
-4024 1 0
-4024 35 0
4024 -1 -35 0
-4025 2 0
-4025 46 0
4025 -2 -46 0
-4026 3 0
-4026 30 0
4026 -3 -30 0
-4027 4 0
-4027 29 0
4027 -4 -29 0
-4028 5 0
-4028 28 0
4028 -5 -28 0
-4029 6 0
-4029 43 0
4029 -6 -43 0
-4030 7 0
-4030 21 0
4030 -7 -21 0
-4031 8 0
-4031 36 0
4031 -8 -36 0
-4032 9 0
-4032 45 0
4032 -9 -45 0
-4033 10 0
-4033 40 0
4033 -10 -40 0
-4034 11 0
-4034 24 0
4034 -11 -24 0
-4035 12 0
-4035 38 0
4035 -12 -38 0
-4036 13 0
-4036 16 0
4036 -13 -16 0
-4037 14 0
-4037 15 0
4037 -14 -15 0
-4038 15 0
-4038 14 0
4038 -15 -14 0
-4039 16 0
-4039 13 0
4039 -16 -13 0
-4040 17 0
-4040 33 0
4040 -17 -33 0
-4041 18 0
-4041 42 0
4041 -18 -42 0
-4042 19 0
-4042 31 0
4042 -19 -31 0
-4043 20 0
-4043 8 0
4043 -20 -8 0
-4044 21 0
-4044 22 0
4044 -21 -22 0
-4045 22 0
-4045 37 0
4045 -22 -37 0
-4046 23 0
-4046 20 0
4046 -23 -20 0
-4047 24 0
-4047 27 0
4047 -24 -27 0
-4048 25 0
-4048 10 0
4048 -25 -10 0
-4049 26 0
-4049 25 0
4049 -26 -25 0
-4050 27 0
-4050 39 0
4050 -27 -39 0
-4051 28 0
-4051 5 0
4051 -28 -5 0
-4052 29 0
-4052 4 0
4052 -29 -4 0
-4053 30 0
-4053 3 0
4053 -30 -3 0
-4054 31 0
-4054 19 0
4054 -31 -19 0
-4055 33 0
-4055 17 0
4055 -33 -17 0
-4056 34 0
-4056 47 0
4056 -34 -47 0
-4057 35 0
-4057 9 0
4057 -35 -9 0
-4058 36 0
-4058 23 0
4058 -36 -23 0
-4059 37 0
-4059 7 0
4059 -37 -7 0
-4060 38 0
-4060 2 0
4060 -38 -2 0
-4061 39 0
-4061 11 0
4061 -39 -11 0
-4062 40 0
-4062 26 0
4062 -40 -26 0
-4063 42 0
-4063 18 0
4063 -42 -18 0
-4064 43 0
-4064 6 0
4064 -43 -6 0
-4065 45 0
-4065 1 0
4065 -45 -1 0
-4066 46 0
-4066 12 0
4066 -46 -12 0
-4067 47 0
-4067 34 0
4067 -47 -34 0
-4024 -4025 0
-4024 4068 0
-4025 4068 0
-4068 4024 4025 0
-4068 -4026 0
-4068 4069 0
-4026 4069 0
-4069 4068 4026 0
-4069 -4027 0
-4069 4070 0
-4027 4070 0
-4070 4069 4027 0
-4070 -4028 0
-4070 4071 0
-4028 4071 0
-4071 4070 4028 0
-4071 -4029 0
-4071 4072 0
-4029 4072 0
-4072 4071 4029 0
-4072 -4030 0
-4072 4073 0
-4030 4073 0
-4073 4072 4030 0
-4073 -4031 0
-4073 4074 0
-4031 4074 0
-4074 4073 4031 0
-4074 -4032 0
-4074 4075 0
-4032 4075 0
-4075 4074 4032 0
-4075 -4033 0
-4075 4076 0
-4033 4076 0
-4076 4075 4033 0
-4076 -4034 0
-4076 4077 0
-4034 4077 0
-4077 4076 4034 0
-4077 -4035 0
-4077 4078 0
-4035 4078 0
-4078 4077 4035 0
-4078 -4036 0
-4078 4079 0
-4036 4079 0
-4079 4078 4036 0
-4079 -4037 0
-4079 4080 0
-4037 4080 0
-4080 4079 4037 0
-4080 -4038 0
-4080 4081 0
-4038 4081 0
-4081 4080 4038 0
-4081 -4039 0
-4081 4082 0
-4039 4082 0
-4082 4081 4039 0
-4082 -4040 0
-4082 4083 0
-4040 4083 0
-4083 4082 4040 0
-4083 -4041 0
-4083 4084 0
-4041 4084 0
-4084 4083 4041 0
-4084 -4042 0
-4084 4085 0
-4042 4085 0
-4085 4084 4042 0
-4085 -4043 0
-4085 4086 0
-4043 4086 0
-4086 4085 4043 0
-4086 -4044 0
-4086 4087 0
-4044 4087 0
-4087 4086 4044 0
-4087 -4045 0
-4087 4088 0
-4045 4088 0
-4088 4087 4045 0
-4088 -4046 0
-4088 4089 0
-4046 4089 0
-4089 4088 4046 0
-4089 -4047 0
-4089 4090 0
-4047 4090 0
-4090 4089 4047 0
-4090 -4048 0
-4090 4091 0
-4048 4091 0
-4091 4090 4048 0
-4091 -4049 0
-4091 4092 0
-4049 4092 0
-4092 4091 4049 0
-4092 -4050 0
-4092 4093 0
-4050 4093 0
-4093 4092 4050 0
-4093 -4051 0
-4093 4094 0
-4051 4094 0
-4094 4093 4051 0
-4094 -4052 0
-4094 4095 0
-4052 4095 0
-4095 4094 4052 0
-4095 -4053 0
-4095 4096 0
-4053 4096 0
-4096 4095 4053 0
-4096 -4054 0
-4096 4097 0
-4054 4097 0
-4097 4096 4054 0
-4097 -32 0
-4097 4098 0
-32 4098 0
-4098 4097 32 0
-4098 -4055 0
-4098 4099 0
-4055 4099 0
-4099 4098 4055 0
-4099 -4056 0
-4099 4100 0
-4056 4100 0
-4100 4099 4056 0
-4100 -4057 0
-4100 4101 0
-4057 4101 0
-4101 4100 4057 0
-4101 -4058 0
-4101 4102 0
-4058 4102 0
-4102 4101 4058 0
-4102 -4059 0
-4102 4103 0
-4059 4103 0
-4103 4102 4059 0
-4103 -4060 0
-4103 4104 0
-4060 4104 0
-4104 4103 4060 0
-4104 -4061 0
-4104 4105 0
-4061 4105 0
-4105 4104 4061 0
-4105 -4062 0
-4105 4106 0
-4062 4106 0
-4106 4105 4062 0
-4106 -4063 0
-4106 4107 0
-4063 4107 0
-4107 4106 4063 0
-4107 -4064 0
-4107 4108 0
-4064 4108 0
-4108 4107 4064 0
-4108 -44 0
-4108 4109 0
-44 4109 0
-4109 4108 44 0
-4109 -4065 0
-4109 4110 0
-4065 4110 0
-4110 4109 4065 0
-4110 -4066 0
-4110 4111 0
-4066 4111 0
-4111 4110 4066 0
-4111 -4067 0
-4111 4112 0
-4067 4112 0
-4112 4111 4067 0
-4113 1 0
-4113 38 0
4113 -1 -38 0
-4114 2 0
-4114 20 0
4114 -2 -20 0
-4115 3 0
-4115 32 0
4115 -3 -32 0
-4116 4 0
-4116 31 0
4116 -4 -31 0
-4117 5 0
-4117 47 0
4117 -5 -47 0
-4118 6 0
-4118 28 0
4118 -6 -28 0
-4119 7 0
-4119 25 0
4119 -7 -25 0
-4120 8 0
-4120 39 0
4120 -8 -39 0
-4121 9 0
-4121 46 0
4121 -9 -46 0
-4122 10 0
-4122 7 0
4122 -10 -7 0
-4123 11 0
-4123 35 0
4123 -11 -35 0
-4124 12 0
-4124 36 0
4124 -12 -36 0
-4125 13 0
-4125 18 0
4125 -13 -18 0
-4126 14 0
-4126 17 0
4126 -14 -17 0
-4127 15 0
-4127 44 0
4127 -15 -44 0
-4128 16 0
-4128 43 0
4128 -16 -43 0
-4129 17 0
-4129 14 0
4129 -17 -14 0
-4130 18 0
-4130 13 0
4130 -18 -13 0
-4131 19 0
-4131 41 0
4131 -19 -41 0
-4132 20 0
-4132 11 0
4132 -20 -11 0
-4133 21 0
-4133 26 0
4133 -21 -26 0
-4134 22 0
-4134 40 0
4134 -22 -40 0
-4135 23 0
-4135 24 0
4135 -23 -24 0
-4136 24 0
-4136 1 0
4136 -24 -1 0
-4137 25 0
-4137 21 0
4137 -25 -21 0
-4138 26 0
-4138 22 0
4138 -26 -22 0
-4139 27 0
-4139 45 0
4139 -27 -45 0
-4140 28 0
-4140 6 0
4140 -28 -6 0
-4141 29 0
-4141 34 0
4141 -29 -34 0
-4142 30 0
-4142 33 0
4142 -30 -33 0
-4143 31 0
-4143 4 0
4143 -31 -4 0
-4144 32 0
-4144 3 0
4144 -32 -3 0
-4145 33 0
-4145 30 0
4145 -33 -30 0
-4146 34 0
-4146 29 0
4146 -34 -29 0
-4147 35 0
-4147 12 0
4147 -35 -12 0
-4148 36 0
-4148 27 0
4148 -36 -27 0
-4149 37 0
-4149 10 0
4149 -37 -10 0
-4150 38 0
-4150 8 0
4150 -38 -8 0
-4151 39 0
-4151 9 0
4151 -39 -9 0
-4152 40 0
-4152 37 0
4152 -40 -37 0
-4153 41 0
-4153 19 0
4153 -41 -19 0
-4154 43 0
-4154 16 0
4154 -43 -16 0
-4155 44 0
-4155 15 0
4155 -44 -15 0
-4156 45 0
-4156 2 0
4156 -45 -2 0
-4157 46 0
-4157 23 0
4157 -46 -23 0
-4158 47 0
-4158 5 0
4158 -47 -5 0
-4113 -4114 0
-4113 4159 0
-4114 4159 0
-4159 4113 4114 0
-4159 -4115 0
-4159 4160 0
-4115 4160 0
-4160 4159 4115 0
-4160 -4116 0
-4160 4161 0
-4116 4161 0
-4161 4160 4116 0
-4161 -4117 0
-4161 4162 0
-4117 4162 0
-4162 4161 4117 0
-4162 -4118 0
-4162 4163 0
-4118 4163 0
-4163 4162 4118 0
-4163 -4119 0
-4163 4164 0
-4119 4164 0
-4164 4163 4119 0
-4164 -4120 0
-4164 4165 0
-4120 4165 0
-4165 4164 4120 0
-4165 -4121 0
-4165 4166 0
-4121 4166 0
-4166 4165 4121 0
-4166 -4122 0
-4166 4167 0
-4122 4167 0
-4167 4166 4122 0
-4167 -4123 0
-4167 4168 0
-4123 4168 0
-4168 4167 4123 0
-4168 -4124 0
-4168 4169 0
-4124 4169 0
-4169 4168 4124 0
-4169 -4125 0
-4169 4170 0
-4125 4170 0
-4170 4169 4125 0
-4170 -4126 0
-4170 4171 0
-4126 4171 0
-4171 4170 4126 0
-4171 -4127 0
-4171 4172 0
-4127 4172 0
-4172 4171 4127 0
-4172 -4128 0
-4172 4173 0
-4128 4173 0
-4173 4172 4128 0
-4173 -4129 0
-4173 4174 0
-4129 4174 0
-4174 4173 4129 0
-4174 -4130 0
-4174 4175 0
-4130 4175 0
-4175 4174 4130 0
-4175 -4131 0
-4175 4176 0
-4131 4176 0
-4176 4175 4131 0
-4176 -4132 0
-4176 4177 0
-4132 4177 0
-4177 4176 4132 0
-4177 -4133 0
-4177 4178 0
-4133 4178 0
-4178 4177 4133 0
-4178 -4134 0
-4178 4179 0
-4134 4179 0
-4179 4178 4134 0
-4179 -4135 0
-4179 4180 0
-4135 4180 0
-4180 4179 4135 0
-4180 -4136 0
-4180 4181 0
-4136 4181 0
-4181 4180 4136 0
-4181 -4137 0
-4181 4182 0
-4137 4182 0
-4182 4181 4137 0
-4182 -4138 0
-4182 4183 0
-4138 4183 0
-4183 4182 4138 0
-4183 -4139 0
-4183 4184 0
-4139 4184 0
-4184 4183 4139 0
-4184 -4140 0
-4184 4185 0
-4140 4185 0
-4185 4184 4140 0
-4185 -4141 0
-4185 4186 0
-4141 4186 0
-4186 4185 4141 0
-4186 -4142 0
-4186 4187 0
-4142 4187 0
-4187 4186 4142 0
-4187 -4143 0
-4187 4188 0
-4143 4188 0
-4188 4187 4143 0
-4188 -4144 0
-4188 4189 0
-4144 4189 0
-4189 4188 4144 0
-4189 -4145 0
-4189 4190 0
-4145 4190 0
-4190 4189 4145 0
-4190 -4146 0
-4190 4191 0
-4146 4191 0
-4191 4190 4146 0
-4191 -4147 0
-4191 4192 0
-4147 4192 0
-4192 4191 4147 0
-4192 -4148 0
-4192 4193 0
-4148 4193 0
-4193 4192 4148 0
-4193 -4149 0
-4193 4194 0
-4149 4194 0
-4194 4193 4149 0
-4194 -4150 0
-4194 4195 0
-4150 4195 0
-4195 4194 4150 0
-4195 -4151 0
-4195 4196 0
-4151 4196 0
-4196 4195 4151 0
-4196 -4152 0
-4196 4197 0
-4152 4197 0
-4197 4196 4152 0
-4197 -4153 0
-4197 4198 0
-4153 4198 0
-4198 4197 4153 0
-4198 -4154 0
-4198 4199 0
-4154 4199 0
-4199 4198 4154 0
-4199 -4155 0
-4199 4200 0
-4155 4200 0
-4200 4199 4155 0
-4200 -4156 0
-4200 4201 0
-4156 4201 0
-4201 4200 4156 0
-4201 -4157 0
-4201 4202 0
-4157 4202 0
-4202 4201 4157 0
-4202 -4158 0
-4202 4203 0
-4158 4203 0
-4203 4202 4158 0
-4204 1 0
-4204 39 0
4204 -1 -39 0
-4205 2 0
-4205 35 0
4205 -2 -35 0
-4206 3 0
-4206 33 0
4206 -3 -33 0
-4207 4 0
-4207 42 0
4207 -4 -42 0
-4208 5 0
-4208 31 0
4208 -5 -31 0
-4209 6 0
-4209 29 0
4209 -6 -29 0
-4210 7 0
-4210 26 0
4210 -7 -26 0
-4211 8 0
-4211 46 0
4211 -8 -46 0
-4212 9 0
-4212 24 0
4212 -9 -24 0
-4213 10 0
-4213 21 0
4213 -10 -21 0
-4214 11 0
-4214 36 0
4214 -11 -36 0
-4215 12 0
-4215 45 0
4215 -12 -45 0
-4216 13 0
-4216 19 0
4216 -13 -19 0
-4217 14 0
-4217 32 0
4217 -14 -32 0
-4218 15 0
-4218 17 0
4218 -15 -17 0
-4219 16 0
-4219 47 0
4219 -16 -47 0
-4220 17 0
-4220 15 0
4220 -17 -15 0
-4221 18 0
-4221 28 0
4221 -18 -28 0
-4222 19 0
-4222 13 0
4222 -19 -13 0
-4223 20 0
-4223 12 0
4223 -20 -12 0
-4224 21 0
-4224 40 0
4224 -21 -40 0
-4225 22 0
-4225 10 0
4225 -22 -10 0
-4226 23 0
-4226 38 0
4226 -23 -38 0
-4227 24 0
-4227 8 0
4227 -24 -8 0
-4228 25 0
-4228 22 0
4228 -25 -22 0
-4229 26 0
-4229 37 0
4229 -26 -37 0
-4230 27 0
-4230 20 0
4230 -27 -20 0
-4231 28 0
-4231 18 0
4231 -28 -18 0
-4232 29 0
-4232 6 0
4232 -29 -6 0
-4233 30 0
-4233 44 0
4233 -30 -44 0
-4234 31 0
-4234 5 0
4234 -31 -5 0
-4235 32 0
-4235 14 0
4235 -32 -14 0
-4236 33 0
-4236 3 0
4236 -33 -3 0
-4237 34 0
-4237 41 0
4237 -34 -41 0
-4238 35 0
-4238 27 0
4238 -35 -27 0
-4239 36 0
-4239 2 0
4239 -36 -2 0
-4240 37 0
-4240 25 0
4240 -37 -25 0
-4241 38 0
-4241 9 0
4241 -38 -9 0
-4242 39 0
-4242 23 0
4242 -39 -23 0
-4243 40 0
-4243 7 0
4243 -40 -7 0
-4244 41 0
-4244 34 0
4244 -41 -34 0
-4245 42 0
-4245 4 0
4245 -42 -4 0
-4246 44 0
-4246 30 0
4246 -44 -30 0
-4247 45 0
-4247 11 0
4247 -45 -11 0
-4248 46 0
-4248 1 0
4248 -46 -1 0
-4249 47 0
-4249 16 0
4249 -47 -16 0
-4204 -4205 0
-4204 4250 0
-4205 4250 0
-4250 4204 4205 0
-4250 -4206 0
-4250 4251 0
-4206 4251 0
-4251 4250 4206 0
-4251 -4207 0
-4251 4252 0
-4207 4252 0
-4252 4251 4207 0
-4252 -4208 0
-4252 4253 0
-4208 4253 0
-4253 4252 4208 0
-4253 -4209 0
-4253 4254 0
-4209 4254 0
-4254 4253 4209 0
-4254 -4210 0
-4254 4255 0
-4210 4255 0
-4255 4254 4210 0
-4255 -4211 0
-4255 4256 0
-4211 4256 0
-4256 4255 4211 0
-4256 -4212 0
-4256 4257 0
-4212 4257 0
-4257 4256 4212 0
-4257 -4213 0
-4257 4258 0
-4213 4258 0
-4258 4257 4213 0
-4258 -4214 0
-4258 4259 0
-4214 4259 0
-4259 4258 4214 0
-4259 -4215 0
-4259 4260 0
-4215 4260 0
-4260 4259 4215 0
-4260 -4216 0
-4260 4261 0
-4216 4261 0
-4261 4260 4216 0
-4261 -4217 0
-4261 4262 0
-4217 4262 0
-4262 4261 4217 0
-4262 -4218 0
-4262 4263 0
-4218 4263 0
-4263 4262 4218 0
-4263 -4219 0
-4263 4264 0
-4219 4264 0
-4264 4263 4219 0
-4264 -4220 0
-4264 4265 0
-4220 4265 0
-4265 4264 4220 0
-4265 -4221 0
-4265 4266 0
-4221 4266 0
-4266 4265 4221 0
-4266 -4222 0
-4266 4267 0
-4222 4267 0
-4267 4266 4222 0
-4267 -4223 0
-4267 4268 0
-4223 4268 0
-4268 4267 4223 0
-4268 -4224 0
-4268 4269 0
-4224 4269 0
-4269 4268 4224 0
-4269 -4225 0
-4269 4270 0
-4225 4270 0
-4270 4269 4225 0
-4270 -4226 0
-4270 4271 0
-4226 4271 0
-4271 4270 4226 0
-4271 -4227 0
-4271 4272 0
-4227 4272 0
-4272 4271 4227 0
-4272 -4228 0
-4272 4273 0
-4228 4273 0
-4273 4272 4228 0
-4273 -4229 0
-4273 4274 0
-4229 4274 0
-4274 4273 4229 0
-4274 -4230 0
-4274 4275 0
-4230 4275 0
-4275 4274 4230 0
-4275 -4231 0
-4275 4276 0
-4231 4276 0
-4276 4275 4231 0
-4276 -4232 0
-4276 4277 0
-4232 4277 0
-4277 4276 4232 0
-4277 -4233 0
-4277 4278 0
-4233 4278 0
-4278 4277 4233 0
-4278 -4234 0
-4278 4279 0
-4234 4279 0
-4279 4278 4234 0
-4279 -4235 0
-4279 4280 0
-4235 4280 0
-4280 4279 4235 0
-4280 -4236 0
-4280 4281 0
-4236 4281 0
-4281 4280 4236 0
-4281 -4237 0
-4281 4282 0
-4237 4282 0
-4282 4281 4237 0
-4282 -4238 0
-4282 4283 0
-4238 4283 0
-4283 4282 4238 0
-4283 -4239 0
-4283 4284 0
-4239 4284 0
-4284 4283 4239 0
-4284 -4240 0
-4284 4285 0
-4240 4285 0
-4285 4284 4240 0
-4285 -4241 0
-4285 4286 0
-4241 4286 0
-4286 4285 4241 0
-4286 -4242 0
-4286 4287 0
-4242 4287 0
-4287 4286 4242 0
-4287 -4243 0
-4287 4288 0
-4243 4288 0
-4288 4287 4243 0
-4288 -4244 0
-4288 4289 0
-4244 4289 0
-4289 4288 4244 0
-4289 -4245 0
-4289 4290 0
-4245 4290 0
-4290 4289 4245 0
-4290 -4246 0
-4290 4291 0
-4246 4291 0
-4291 4290 4246 0
-4291 -4247 0
-4291 4292 0
-4247 4292 0
-4292 4291 4247 0
-4292 -4248 0
-4292 4293 0
-4248 4293 0
-4293 4292 4248 0
-4293 -4249 0
-4293 4294 0
-4249 4294 0
-4294 4293 4249 0
-4295 1 0
-4295 40 0
4295 -1 -40 0
-4296 2 0
-4296 22 0
4296 -2 -22 0
-4297 3 0
-4297 34 0
4297 -3 -34 0
-4298 4 0
-4298 33 0
4298 -4 -33 0
-4299 5 0
-4299 32 0
4299 -5 -32 0
-4300 6 0
-4300 30 0
4300 -6 -30 0
-4301 7 0
-4301 27 0
4301 -7 -27 0
-4302 8 0
-4302 10 0
4302 -8 -10 0
-4303 9 0
-4303 25 0
4303 -9 -25 0
-4304 10 0
-4304 9 0
4304 -10 -9 0
-4305 11 0
-4305 37 0
4305 -11 -37 0
-4306 12 0
-4306 7 0
4306 -12 -7 0
-4307 13 0
-4307 47 0
4307 -13 -47 0
-4308 14 0
-4308 19 0
4308 -14 -19 0
-4309 15 0
-4309 18 0
4309 -15 -18 0
-4310 16 0
-4310 17 0
4310 -16 -17 0
-4311 17 0
-4311 16 0
4311 -17 -16 0
-4312 18 0
-4312 15 0
4312 -18 -15 0
-4313 19 0
-4313 14 0
4313 -19 -14 0
-4314 20 0
-4314 46 0
4314 -20 -46 0
-4315 21 0
-4315 2 0
4315 -21 -2 0
-4316 22 0
-4316 11 0
4316 -22 -11 0
-4317 23 0
-4317 26 0
4317 -23 -26 0
-4318 24 0
-4318 36 0
4318 -24 -36 0
-4319 25 0
-4319 23 0
4319 -25 -23 0
-4320 26 0
-4320 1 0
4320 -26 -1 0
-4321 27 0
-4321 21 0
4321 -27 -21 0
-4322 28 0
-4322 43 0
4322 -28 -43 0
-4323 29 0
-4323 42 0
4323 -29 -42 0
-4324 30 0
-4324 6 0
4324 -30 -6 0
-4325 31 0
-4325 41 0
4325 -31 -41 0
-4326 32 0
-4326 5 0
4326 -32 -5 0
-4327 33 0
-4327 4 0
4327 -33 -4 0
-4328 34 0
-4328 3 0
4328 -34 -3 0
-4329 35 0
-4329 24 0
4329 -35 -24 0
-4330 36 0
-4330 38 0
4330 -36 -38 0
-4331 37 0
-4331 12 0
4331 -37 -12 0
-4332 38 0
-4332 45 0
4332 -38 -45 0
-4333 39 0
-4333 20 0
4333 -39 -20 0
-4334 40 0
-4334 8 0
4334 -40 -8 0
-4335 41 0
-4335 31 0
4335 -41 -31 0
-4336 42 0
-4336 29 0
4336 -42 -29 0
-4337 43 0
-4337 28 0
4337 -43 -28 0
-4338 45 0
-4338 39 0
4338 -45 -39 0
-4339 46 0
-4339 35 0
4339 -46 -35 0
-4340 47 0
-4340 13 0
4340 -47 -13 0
-4295 -4296 0
-4295 4341 0
-4296 4341 0
-4341 4295 4296 0
-4341 -4297 0
-4341 4342 0
-4297 4342 0
-4342 4341 4297 0
-4342 -4298 0
-4342 4343 0
-4298 4343 0
-4343 4342 4298 0
-4343 -4299 0
-4343 4344 0
-4299 4344 0
-4344 4343 4299 0
-4344 -4300 0
-4344 4345 0
-4300 4345 0
-4345 4344 4300 0
-4345 -4301 0
-4345 4346 0
-4301 4346 0
-4346 4345 4301 0
-4346 -4302 0
-4346 4347 0
-4302 4347 0
-4347 4346 4302 0
-4347 -4303 0
-4347 4348 0
-4303 4348 0
-4348 4347 4303 0
-4348 -4304 0
-4348 4349 0
-4304 4349 0
-4349 4348 4304 0
-4349 -4305 0
-4349 4350 0
-4305 4350 0
-4350 4349 4305 0
-4350 -4306 0
-4350 4351 0
-4306 4351 0
-4351 4350 4306 0
-4351 -4307 0
-4351 4352 0
-4307 4352 0
-4352 4351 4307 0
-4352 -4308 0
-4352 4353 0
-4308 4353 0
-4353 4352 4308 0
-4353 -4309 0
-4353 4354 0
-4309 4354 0
-4354 4353 4309 0
-4354 -4310 0
-4354 4355 0
-4310 4355 0
-4355 4354 4310 0
-4355 -4311 0
-4355 4356 0
-4311 4356 0
-4356 4355 4311 0
-4356 -4312 0
-4356 4357 0
-4312 4357 0
-4357 4356 4312 0
-4357 -4313 0
-4357 4358 0
-4313 4358 0
-4358 4357 4313 0
-4358 -4314 0
-4358 4359 0
-4314 4359 0
-4359 4358 4314 0
-4359 -4315 0
-4359 4360 0
-4315 4360 0
-4360 4359 4315 0
-4360 -4316 0
-4360 4361 0
-4316 4361 0
-4361 4360 4316 0
-4361 -4317 0
-4361 4362 0
-4317 4362 0
-4362 4361 4317 0
-4362 -4318 0
-4362 4363 0
-4318 4363 0
-4363 4362 4318 0
-4363 -4319 0
-4363 4364 0
-4319 4364 0
-4364 4363 4319 0
-4364 -4320 0
-4364 4365 0
-4320 4365 0
-4365 4364 4320 0
-4365 -4321 0
-4365 4366 0
-4321 4366 0
-4366 4365 4321 0
-4366 -4322 0
-4366 4367 0
-4322 4367 0
-4367 4366 4322 0
-4367 -4323 0
-4367 4368 0
-4323 4368 0
-4368 4367 4323 0
-4368 -4324 0
-4368 4369 0
-4324 4369 0
-4369 4368 4324 0
-4369 -4325 0
-4369 4370 0
-4325 4370 0
-4370 4369 4325 0
-4370 -4326 0
-4370 4371 0
-4326 4371 0
-4371 4370 4326 0
-4371 -4327 0
-4371 4372 0
-4327 4372 0
-4372 4371 4327 0
-4372 -4328 0
-4372 4373 0
-4328 4373 0
-4373 4372 4328 0
-4373 -4329 0
-4373 4374 0
-4329 4374 0
-4374 4373 4329 0
-4374 -4330 0
-4374 4375 0
-4330 4375 0
-4375 4374 4330 0
-4375 -4331 0
-4375 4376 0
-4331 4376 0
-4376 4375 4331 0
-4376 -4332 0
-4376 4377 0
-4332 4377 0
-4377 4376 4332 0
-4377 -4333 0
-4377 4378 0
-4333 4378 0
-4378 4377 4333 0
-4378 -4334 0
-4378 4379 0
-4334 4379 0
-4379 4378 4334 0
-4379 -4335 0
-4379 4380 0
-4335 4380 0
-4380 4379 4335 0
-4380 -4336 0
-4380 4381 0
-4336 4381 0
-4381 4380 4336 0
-4381 -4337 0
-4381 4382 0
-4337 4382 0
-4382 4381 4337 0
-4382 -4338 0
-4382 4383 0
-4338 4383 0
-4383 4382 4338 0
-4383 -4339 0
-4383 4384 0
-4339 4384 0
-4384 4383 4339 0
-4384 -4340 0
-4384 4385 0
-4340 4385 0
-4385 4384 4340 0
-4386 1 0
-4386 41 0
4386 -1 -41 0
-4387 2 0
-4387 31 0
4387 -2 -31 0
-4388 3 0
-4388 37 0
4388 -3 -37 0
-4389 4 0
-4389 20 0
4389 -4 -20 0
-4390 5 0
-4390 35 0
4390 -5 -35 0
-4391 6 0
-4391 46 0
4391 -6 -46 0
-4392 7 0
-4392 30 0
4392 -7 -30 0
-4393 8 0
-4393 29 0
4393 -8 -29 0
-4394 9 0
-4394 28 0
4394 -9 -28 0
-4395 10 0
-4395 17 0
4395 -10 -17 0
-4396 11 0
-4396 47 0
4396 -11 -47 0
-4397 12 0
-4397 43 0
4397 -12 -43 0
-4398 13 0
-4398 23 0
4398 -13 -23 0
-4399 14 0
-4399 7 0
4399 -14 -7 0
-4400 15 0
-4400 21 0
4400 -15 -21 0
-4401 16 0
-4401 36 0
4401 -16 -36 0
-4402 17 0
-4402 40 0
4402 -17 -40 0
-4403 18 0
-4403 24 0
4403 -18 -24 0
-4404 19 0
-4404 38 0
4404 -19 -38 0
-4405 20 0
-4405 16 0
4405 -20 -16 0
-4406 21 0
-4406 15 0
4406 -21 -15 0
-4407 22 0
-4407 14 0
4407 -22 -14 0
-4408 23 0
-4408 13 0
4408 -23 -13 0
-4409 24 0
-4409 6 0
4409 -24 -6 0
-4410 25 0
-4410 44 0
4410 -25 -44 0
-4411 26 0
-4411 33 0
4411 -26 -33 0
-4412 27 0
-4412 42 0
4412 -27 -42 0
-4413 28 0
-4413 1 0
4413 -28 -1 0
-4414 29 0
-4414 8 0
4414 -29 -8 0
-4415 30 0
-4415 22 0
4415 -30 -22 0
-4416 31 0
-4416 27 0
4416 -31 -27 0
-4417 32 0
-4417 10 0
4417 -32 -10 0
-4418 33 0
-4418 25 0
4418 -33 -25 0
-4419 34 0
-4419 39 0
4419 -34 -39 0
-4420 35 0
-4420 5 0
4420 -35 -5 0
-4421 36 0
-4421 4 0
4421 -36 -4 0
-4422 37 0
-4422 3 0
4422 -37 -3 0
-4423 38 0
-4423 34 0
4423 -38 -34 0
-4424 39 0
-4424 19 0
4424 -39 -19 0
-4425 40 0
-4425 32 0
4425 -40 -32 0
-4426 41 0
-4426 9 0
4426 -41 -9 0
-4427 42 0
-4427 2 0
4427 -42 -2 0
-4428 43 0
-4428 11 0
4428 -43 -11 0
-4429 44 0
-4429 26 0
4429 -44 -26 0
-4430 46 0
-4430 18 0
4430 -46 -18 0
-4431 47 0
-4431 12 0
4431 -47 -12 0
-4386 -4387 0
-4386 4432 0
-4387 4432 0
-4432 4386 4387 0
-4432 -4388 0
-4432 4433 0
-4388 4433 0
-4433 4432 4388 0
-4433 -4389 0
-4433 4434 0
-4389 4434 0
-4434 4433 4389 0
-4434 -4390 0
-4434 4435 0
-4390 4435 0
-4435 4434 4390 0
-4435 -4391 0
-4435 4436 0
-4391 4436 0
-4436 4435 4391 0
-4436 -4392 0
-4436 4437 0
-4392 4437 0
-4437 4436 4392 0
-4437 -4393 0
-4437 4438 0
-4393 4438 0
-4438 4437 4393 0
-4438 -4394 0
-4438 4439 0
-4394 4439 0
-4439 4438 4394 0
-4439 -4395 0
-4439 4440 0
-4395 4440 0
-4440 4439 4395 0
-4440 -4396 0
-4440 4441 0
-4396 4441 0
-4441 4440 4396 0
-4441 -4397 0
-4441 4442 0
-4397 4442 0
-4442 4441 4397 0
-4442 -4398 0
-4442 4443 0
-4398 4443 0
-4443 4442 4398 0
-4443 -4399 0
-4443 4444 0
-4399 4444 0
-4444 4443 4399 0
-4444 -4400 0
-4444 4445 0
-4400 4445 0
-4445 4444 4400 0
-4445 -4401 0
-4445 4446 0
-4401 4446 0
-4446 4445 4401 0
-4446 -4402 0
-4446 4447 0
-4402 4447 0
-4447 4446 4402 0
-4447 -4403 0
-4447 4448 0
-4403 4448 0
-4448 4447 4403 0
-4448 -4404 0
-4448 4449 0
-4404 4449 0
-4449 4448 4404 0
-4449 -4405 0
-4449 4450 0
-4405 4450 0
-4450 4449 4405 0
-4450 -4406 0
-4450 4451 0
-4406 4451 0
-4451 4450 4406 0
-4451 -4407 0
-4451 4452 0
-4407 4452 0
-4452 4451 4407 0
-4452 -4408 0
-4452 4453 0
-4408 4453 0
-4453 4452 4408 0
-4453 -4409 0
-4453 4454 0
-4409 4454 0
-4454 4453 4409 0
-4454 -4410 0
-4454 4455 0
-4410 4455 0
-4455 4454 4410 0
-4455 -4411 0
-4455 4456 0
-4411 4456 0
-4456 4455 4411 0
-4456 -4412 0
-4456 4457 0
-4412 4457 0
-4457 4456 4412 0
-4457 -4413 0
-4457 4458 0
-4413 4458 0
-4458 4457 4413 0
-4458 -4414 0
-4458 4459 0
-4414 4459 0
-4459 4458 4414 0
-4459 -4415 0
-4459 4460 0
-4415 4460 0
-4460 4459 4415 0
-4460 -4416 0
-4460 4461 0
-4416 4461 0
-4461 4460 4416 0
-4461 -4417 0
-4461 4462 0
-4417 4462 0
-4462 4461 4417 0
-4462 -4418 0
-4462 4463 0
-4418 4463 0
-4463 4462 4418 0
-4463 -4419 0
-4463 4464 0
-4419 4464 0
-4464 4463 4419 0
-4464 -4420 0
-4464 4465 0
-4420 4465 0
-4465 4464 4420 0
-4465 -4421 0
-4465 4466 0
-4421 4466 0
-4466 4465 4421 0
-4466 -4422 0
-4466 4467 0
-4422 4467 0
-4467 4466 4422 0
-4467 -4423 0
-4467 4468 0
-4423 4468 0
-4468 4467 4423 0
-4468 -4424 0
-4468 4469 0
-4424 4469 0
-4469 4468 4424 0
-4469 -4425 0
-4469 4470 0
-4425 4470 0
-4470 4469 4425 0
-4470 -4426 0
-4470 4471 0
-4426 4471 0
-4471 4470 4426 0
-4471 -4427 0
-4471 4472 0
-4427 4472 0
-4472 4471 4427 0
-4472 -4428 0
-4472 4473 0
-4428 4473 0
-4473 4472 4428 0
-4473 -4429 0
-4473 4474 0
-4429 4474 0
-4474 4473 4429 0
-4474 -4430 0
-4474 4475 0
-4430 4475 0
-4475 4474 4430 0
-4475 -4431 0
-4475 4476 0
-4431 4476 0
-4476 4475 4431 0
-4477 1 0
-4477 42 0
4477 -1 -42 0
-4478 2 0
-4478 41 0
4478 -2 -41 0
-4479 3 0
-4479 40 0
4479 -3 -40 0
-4480 4 0
-4480 24 0
4480 -4 -24 0
-4481 5 0
-4481 38 0
4481 -5 -38 0
-4482 6 0
-4482 20 0
4482 -6 -20 0
-4483 7 0
-4483 32 0
4483 -7 -32 0
-4484 8 0
-4484 31 0
4484 -8 -31 0
-4485 9 0
-4485 47 0
4485 -9 -47 0
-4486 10 0
-4486 30 0
4486 -10 -30 0
-4487 11 0
-4487 29 0
4487 -11 -29 0
-4488 12 0
-4488 28 0
4488 -12 -28 0
-4489 13 0
-4489 27 0
4489 -13 -27 0
-4490 14 0
-4490 10 0
4490 -14 -10 0
-4491 15 0
-4491 25 0
4491 -15 -25 0
-4492 16 0
-4492 39 0
4492 -16 -39 0
-4493 17 0
-4493 7 0
4493 -17 -7 0
-4494 18 0
-4494 35 0
4494 -18 -35 0
-4495 19 0
-4495 36 0
4495 -19 -36 0
-4496 20 0
-4496 18 0
4496 -20 -18 0
-4497 21 0
-4497 17 0
4497 -21 -17 0
-4498 22 0
-4498 44 0
4498 -22 -44 0
-4499 23 0
-4499 43 0
4499 -23 -43 0
-4500 24 0
-4500 16 0
4500 -24 -16 0
-4501 25 0
-4501 15 0
4501 -25 -15 0
-4502 26 0
-4502 14 0
4502 -26 -14 0
-4503 27 0
-4503 13 0
4503 -27 -13 0
-4504 28 0
-4504 2 0
4504 -28 -2 0
-4505 29 0
-4505 11 0
4505 -29 -11 0
-4506 30 0
-4506 26 0
4506 -30 -26 0
-4507 31 0
-4507 1 0
4507 -31 -1 0
-4508 32 0
-4508 21 0
4508 -32 -21 0
-4509 33 0
-4509 22 0
4509 -33 -22 0
-4510 34 0
-4510 45 0
4510 -34 -45 0
-4511 35 0
-4511 6 0
4511 -35 -6 0
-4512 36 0
-4512 34 0
4512 -36 -34 0
-4513 37 0
-4513 33 0
4513 -37 -33 0
-4514 38 0
-4514 5 0
4514 -38 -5 0
-4515 39 0
-4515 4 0
4515 -39 -4 0
-4516 40 0
-4516 3 0
4516 -40 -3 0
-4517 41 0
-4517 12 0
4517 -41 -12 0
-4518 42 0
-4518 8 0
4518 -42 -8 0
-4519 43 0
-4519 9 0
4519 -43 -9 0
-4520 44 0
-4520 37 0
4520 -44 -37 0
-4521 45 0
-4521 19 0
4521 -45 -19 0
-4522 47 0
-4522 23 0
4522 -47 -23 0
-4477 -4478 0
-4477 4523 0
-4478 4523 0
-4523 4477 4478 0
-4523 -4479 0
-4523 4524 0
-4479 4524 0
-4524 4523 4479 0
-4524 -4480 0
-4524 4525 0
-4480 4525 0
-4525 4524 4480 0
-4525 -4481 0
-4525 4526 0
-4481 4526 0
-4526 4525 4481 0
-4526 -4482 0
-4526 4527 0
-4482 4527 0
-4527 4526 4482 0
-4527 -4483 0
-4527 4528 0
-4483 4528 0
-4528 4527 4483 0
-4528 -4484 0
-4528 4529 0
-4484 4529 0
-4529 4528 4484 0
-4529 -4485 0
-4529 4530 0
-4485 4530 0
-4530 4529 4485 0
-4530 -4486 0
-4530 4531 0
-4486 4531 0
-4531 4530 4486 0
-4531 -4487 0
-4531 4532 0
-4487 4532 0
-4532 4531 4487 0
-4532 -4488 0
-4532 4533 0
-4488 4533 0
-4533 4532 4488 0
-4533 -4489 0
-4533 4534 0
-4489 4534 0
-4534 4533 4489 0
-4534 -4490 0
-4534 4535 0
-4490 4535 0
-4535 4534 4490 0
-4535 -4491 0
-4535 4536 0
-4491 4536 0
-4536 4535 4491 0
-4536 -4492 0
-4536 4537 0
-4492 4537 0
-4537 4536 4492 0
-4537 -4493 0
-4537 4538 0
-4493 4538 0
-4538 4537 4493 0
-4538 -4494 0
-4538 4539 0
-4494 4539 0
-4539 4538 4494 0
-4539 -4495 0
-4539 4540 0
-4495 4540 0
-4540 4539 4495 0
-4540 -4496 0
-4540 4541 0
-4496 4541 0
-4541 4540 4496 0
-4541 -4497 0
-4541 4542 0
-4497 4542 0
-4542 4541 4497 0
-4542 -4498 0
-4542 4543 0
-4498 4543 0
-4543 4542 4498 0
-4543 -4499 0
-4543 4544 0
-4499 4544 0
-4544 4543 4499 0
-4544 -4500 0
-4544 4545 0
-4500 4545 0
-4545 4544 4500 0
-4545 -4501 0
-4545 4546 0
-4501 4546 0
-4546 4545 4501 0
-4546 -4502 0
-4546 4547 0
-4502 4547 0
-4547 4546 4502 0
-4547 -4503 0
-4547 4548 0
-4503 4548 0
-4548 4547 4503 0
-4548 -4504 0
-4548 4549 0
-4504 4549 0
-4549 4548 4504 0
-4549 -4505 0
-4549 4550 0
-4505 4550 0
-4550 4549 4505 0
-4550 -4506 0
-4550 4551 0
-4506 4551 0
-4551 4550 4506 0
-4551 -4507 0
-4551 4552 0
-4507 4552 0
-4552 4551 4507 0
-4552 -4508 0
-4552 4553 0
-4508 4553 0
-4553 4552 4508 0
-4553 -4509 0
-4553 4554 0
-4509 4554 0
-4554 4553 4509 0
-4554 -4510 0
-4554 4555 0
-4510 4555 0
-4555 4554 4510 0
-4555 -4511 0
-4555 4556 0
-4511 4556 0
-4556 4555 4511 0
-4556 -4512 0
-4556 4557 0
-4512 4557 0
-4557 4556 4512 0
-4557 -4513 0
-4557 4558 0
-4513 4558 0
-4558 4557 4513 0
-4558 -4514 0
-4558 4559 0
-4514 4559 0
-4559 4558 4514 0
-4559 -4515 0
-4559 4560 0
-4515 4560 0
-4560 4559 4515 0
-4560 -4516 0
-4560 4561 0
-4516 4561 0
-4561 4560 4516 0
-4561 -4517 0
-4561 4562 0
-4517 4562 0
-4562 4561 4517 0
-4562 -4518 0
-4562 4563 0
-4518 4563 0
-4563 4562 4518 0
-4563 -4519 0
-4563 4564 0
-4519 4564 0
-4564 4563 4519 0
-4564 -4520 0
-4564 4565 0
-4520 4565 0
-4565 4564 4520 0
-4565 -4521 0
-4565 4566 0
-4521 4566 0
-4566 4565 4521 0
-4566 -4522 0
-4566 4567 0
-4522 4567 0
-4567 4566 4522 0
-4568 1 0
-4568 46 0
4568 -1 -46 0
-4569 2 0
-4569 36 0
4569 -2 -36 0
-4570 3 0
-4570 44 0
4570 -3 -44 0
-4571 4 0
-4571 43 0
4571 -4 -43 0
-4572 5 0
-4572 42 0
4572 -5 -42 0
-4573 6 0
-4573 41 0
4573 -6 -41 0
-4574 7 0
-4574 40 0
4574 -7 -40 0
-4575 8 0
-4575 24 0
4575 -8 -24 0
-4576 9 0
-4576 38 0
4576 -9 -38 0
-4577 10 0
-4577 22 0
4577 -10 -22 0
-4578 11 0
-4578 45 0
4578 -11 -45 0
-4579 12 0
-4579 20 0
4579 -12 -20 0
-4580 13 0
-4580 34 0
4580 -13 -34 0
-4581 14 0
-4581 33 0
4581 -14 -33 0
-4582 15 0
-4582 32 0
4582 -15 -32 0
-4583 16 0
-4583 31 0
4583 -16 -31 0
-4584 17 0
-4584 30 0
4584 -17 -30 0
-4585 18 0
-4585 29 0
4585 -18 -29 0
-4586 19 0
-4586 28 0
4586 -19 -28 0
-4587 20 0
-4587 27 0
4587 -20 -27 0
-4588 21 0
-4588 10 0
4588 -21 -10 0
-4589 22 0
-4589 25 0
4589 -22 -25 0
-4590 23 0
-4590 39 0
4590 -23 -39 0
-4591 24 0
-4591 9 0
4591 -24 -9 0
-4592 25 0
-4592 37 0
4592 -25 -37 0
-4593 26 0
-4593 7 0
4593 -26 -7 0
-4594 27 0
-4594 35 0
4594 -27 -35 0
-4595 28 0
-4595 19 0
4595 -28 -19 0
-4596 29 0
-4596 18 0
4596 -29 -18 0
-4597 30 0
-4597 17 0
4597 -30 -17 0
-4598 31 0
-4598 16 0
4598 -31 -16 0
-4599 32 0
-4599 15 0
4599 -32 -15 0
-4600 33 0
-4600 14 0
4600 -33 -14 0
-4601 34 0
-4601 13 0
4601 -34 -13 0
-4602 35 0
-4602 2 0
4602 -35 -2 0
-4603 36 0
-4603 11 0
4603 -36 -11 0
-4604 37 0
-4604 26 0
4604 -37 -26 0
-4605 38 0
-4605 23 0
4605 -38 -23 0
-4606 39 0
-4606 1 0
4606 -39 -1 0
-4607 40 0
-4607 21 0
4607 -40 -21 0
-4608 41 0
-4608 6 0
4608 -41 -6 0
-4609 42 0
-4609 5 0
4609 -42 -5 0
-4610 43 0
-4610 4 0
4610 -43 -4 0
-4611 44 0
-4611 3 0
4611 -44 -3 0
-4612 45 0
-4612 12 0
4612 -45 -12 0
-4613 46 0
-4613 8 0
4613 -46 -8 0
-4568 -4569 0
-4568 4614 0
-4569 4614 0
-4614 4568 4569 0
-4614 -4570 0
-4614 4615 0
-4570 4615 0
-4615 4614 4570 0
-4615 -4571 0
-4615 4616 0
-4571 4616 0
-4616 4615 4571 0
-4616 -4572 0
-4616 4617 0
-4572 4617 0
-4617 4616 4572 0
-4617 -4573 0
-4617 4618 0
-4573 4618 0
-4618 4617 4573 0
-4618 -4574 0
-4618 4619 0
-4574 4619 0
-4619 4618 4574 0
-4619 -4575 0
-4619 4620 0
-4575 4620 0
-4620 4619 4575 0
-4620 -4576 0
-4620 4621 0
-4576 4621 0
-4621 4620 4576 0
-4621 -4577 0
-4621 4622 0
-4577 4622 0
-4622 4621 4577 0
-4622 -4578 0
-4622 4623 0
-4578 4623 0
-4623 4622 4578 0
-4623 -4579 0
-4623 4624 0
-4579 4624 0
-4624 4623 4579 0
-4624 -4580 0
-4624 4625 0
-4580 4625 0
-4625 4624 4580 0
-4625 -4581 0
-4625 4626 0
-4581 4626 0
-4626 4625 4581 0
-4626 -4582 0
-4626 4627 0
-4582 4627 0
-4627 4626 4582 0
-4627 -4583 0
-4627 4628 0
-4583 4628 0
-4628 4627 4583 0
-4628 -4584 0
-4628 4629 0
-4584 4629 0
-4629 4628 4584 0
-4629 -4585 0
-4629 4630 0
-4585 4630 0
-4630 4629 4585 0
-4630 -4586 0
-4630 4631 0
-4586 4631 0
-4631 4630 4586 0
-4631 -4587 0
-4631 4632 0
-4587 4632 0
-4632 4631 4587 0
-4632 -4588 0
-4632 4633 0
-4588 4633 0
-4633 4632 4588 0
-4633 -4589 0
-4633 4634 0
-4589 4634 0
-4634 4633 4589 0
-4634 -4590 0
-4634 4635 0
-4590 4635 0
-4635 4634 4590 0
-4635 -4591 0
-4635 4636 0
-4591 4636 0
-4636 4635 4591 0
-4636 -4592 0
-4636 4637 0
-4592 4637 0
-4637 4636 4592 0
-4637 -4593 0
-4637 4638 0
-4593 4638 0
-4638 4637 4593 0
-4638 -4594 0
-4638 4639 0
-4594 4639 0
-4639 4638 4594 0
-4639 -4595 0
-4639 4640 0
-4595 4640 0
-4640 4639 4595 0
-4640 -4596 0
-4640 4641 0
-4596 4641 0
-4641 4640 4596 0
-4641 -4597 0
-4641 4642 0
-4597 4642 0
-4642 4641 4597 0
-4642 -4598 0
-4642 4643 0
-4598 4643 0
-4643 4642 4598 0
-4643 -4599 0
-4643 4644 0
-4599 4644 0
-4644 4643 4599 0
-4644 -4600 0
-4644 4645 0
-4600 4645 0
-4645 4644 4600 0
-4645 -4601 0
-4645 4646 0
-4601 4646 0
-4646 4645 4601 0
-4646 -4602 0
-4646 4647 0
-4602 4647 0
-4647 4646 4602 0
-4647 -4603 0
-4647 4648 0
-4603 4648 0
-4648 4647 4603 0
-4648 -4604 0
-4648 4649 0
-4604 4649 0
-4649 4648 4604 0
-4649 -4605 0
-4649 4650 0
-4605 4650 0
-4650 4649 4605 0
-4650 -4606 0
-4650 4651 0
-4606 4651 0
-4651 4650 4606 0
-4651 -4607 0
-4651 4652 0
-4607 4652 0
-4652 4651 4607 0
-4652 -4608 0
-4652 4653 0
-4608 4653 0
-4653 4652 4608 0
-4653 -4609 0
-4653 4654 0
-4609 4654 0
-4654 4653 4609 0
-4654 -4610 0
-4654 4655 0
-4610 4655 0
-4655 4654 4610 0
-4655 -4611 0
-4655 4656 0
-4611 4656 0
-4656 4655 4611 0
-4656 -4612 0
-4656 4657 0
-4612 4657 0
-4657 4656 4612 0
-4657 -4613 0
-4657 4658 0
-4613 4658 0
-4658 4657 4613 0
