p cnf 3757 13047
1 0
-50 3 0
-50 2 0
50 -3 -2 0
-51 4 0
-51 3 0
51 -4 -3 0
-52 5 0
-52 4 0
52 -5 -4 0
-53 6 0
-53 5 0
53 -6 -5 0
-54 7 0
-54 6 0
54 -7 -6 0
-55 8 0
-55 7 0
55 -8 -7 0
-56 9 0
-56 8 0
56 -9 -8 0
-57 10 0
-57 9 0
57 -10 -9 0
-58 11 0
-58 10 0
58 -11 -10 0
-59 12 0
-59 11 0
59 -12 -11 0
-60 13 0
-60 12 0
60 -13 -12 0
-61 14 0
-61 37 0
61 -14 -37 0
-62 15 0
-62 14 0
62 -15 -14 0
-63 16 0
-63 15 0
63 -16 -15 0
-64 17 0
-64 16 0
64 -17 -16 0
-65 18 0
-65 17 0
65 -18 -17 0
-66 19 0
-66 18 0
66 -19 -18 0
-67 20 0
-67 19 0
67 -20 -19 0
-68 21 0
-68 20 0
68 -21 -20 0
-69 22 0
-69 21 0
69 -22 -21 0
-70 23 0
-70 22 0
70 -23 -22 0
-71 24 0
-71 23 0
71 -24 -23 0
-72 25 0
-72 24 0
72 -25 -24 0
-73 26 0
-73 25 0
73 -26 -25 0
-74 27 0
-74 26 0
74 -27 -26 0
-75 28 0
-75 27 0
75 -28 -27 0
-76 29 0
-76 28 0
76 -29 -28 0
-77 30 0
-77 29 0
77 -30 -29 0
-78 31 0
-78 30 0
78 -31 -30 0
-79 32 0
-79 31 0
79 -32 -31 0
-80 33 0
-80 32 0
80 -33 -32 0
-81 34 0
-81 33 0
81 -34 -33 0
-82 35 0
-82 34 0
82 -35 -34 0
-83 36 0
-83 35 0
83 -36 -35 0
-84 37 0
-84 36 0
84 -37 -36 0
-50 0
-51 0
-52 0
-53 0
-54 0
-55 0
-56 0
-57 0
-58 0
-59 0
-60 0
1 -61 0
-61 -62 0
-85 -61 0
-85 -62 0
85 61 62 0
85 -63 0
-86 85 0
-86 -63 0
86 -85 63 0
86 -64 0
-87 86 0
-87 -64 0
87 -86 64 0
87 -65 0
-88 87 0
-88 -65 0
88 -87 65 0
88 -66 0
-89 88 0
-89 -66 0
89 -88 66 0
89 -67 0
-90 89 0
-90 -67 0
90 -89 67 0
90 -68 0
-91 90 0
-91 -68 0
91 -90 68 0
91 -69 0
-92 91 0
-92 -69 0
92 -91 69 0
92 -70 0
-93 92 0
-93 -70 0
93 -92 70 0
93 -71 0
-94 93 0
-94 -71 0
94 -93 71 0
94 -72 0
-95 94 0
-95 -72 0
95 -94 72 0
95 -73 0
-96 95 0
-96 -73 0
96 -95 73 0
96 -74 0
-97 96 0
-97 -74 0
97 -96 74 0
97 -75 0
-98 97 0
-98 -75 0
98 -97 75 0
98 -76 0
-99 98 0
-99 -76 0
99 -98 76 0
99 -77 0
-100 99 0
-100 -77 0
100 -99 77 0
100 -78 0
-101 100 0
-101 -78 0
101 -100 78 0
101 -79 0
-102 101 0
-102 -79 0
102 -101 79 0
102 -80 0
-103 102 0
-103 -80 0
103 -102 80 0
103 -81 0
-104 103 0
-104 -81 0
104 -103 81 0
104 -82 0
-105 104 0
-105 -82 0
105 -104 82 0
105 -83 0
-106 105 0
-106 -83 0
106 -105 83 0
106 -84 0
-107 106 0
-107 -84 0
107 -106 84 0
-108 4 0
-108 2 0
108 -4 -2 0
-109 5 0
-109 3 0
109 -5 -3 0
-110 6 0
-110 4 0
110 -6 -4 0
-111 7 0
-111 5 0
111 -7 -5 0
-112 8 0
-112 6 0
112 -8 -6 0
-113 9 0
-113 7 0
113 -9 -7 0
-114 10 0
-114 8 0
114 -10 -8 0
-115 11 0
-115 9 0
115 -11 -9 0
-116 12 0
-116 10 0
116 -12 -10 0
-117 13 0
-117 11 0
117 -13 -11 0
-118 14 0
-118 36 0
118 -14 -36 0
-119 15 0
-119 37 0
119 -15 -37 0
-120 16 0
-120 14 0
120 -16 -14 0
-121 17 0
-121 15 0
121 -17 -15 0
-122 18 0
-122 16 0
122 -18 -16 0
-123 19 0
-123 17 0
123 -19 -17 0
-124 20 0
-124 18 0
124 -20 -18 0
-125 21 0
-125 19 0
125 -21 -19 0
-126 22 0
-126 20 0
126 -22 -20 0
-127 23 0
-127 21 0
127 -23 -21 0
-128 24 0
-128 22 0
128 -24 -22 0
-129 25 0
-129 23 0
129 -25 -23 0
-130 26 0
-130 24 0
130 -26 -24 0
-131 27 0
-131 25 0
131 -27 -25 0
-132 28 0
-132 26 0
132 -28 -26 0
-133 29 0
-133 27 0
133 -29 -27 0
-134 30 0
-134 28 0
134 -30 -28 0
-135 31 0
-135 29 0
135 -31 -29 0
-136 32 0
-136 30 0
136 -32 -30 0
-137 33 0
-137 31 0
137 -33 -31 0
-138 34 0
-138 32 0
138 -34 -32 0
-139 35 0
-139 33 0
139 -35 -33 0
-140 36 0
-140 34 0
140 -36 -34 0
-141 37 0
-141 35 0
141 -37 -35 0
-108 0
-109 0
-110 0
-111 0
-112 0
-113 0
-114 0
-115 0
-116 0
-117 0
1 -2 0
-2 -12 0
-142 -2 0
-142 -12 0
142 2 12 0
142 -118 0
-143 142 0
-143 -118 0
143 -142 118 0
143 -119 0
-144 143 0
-144 -119 0
144 -143 119 0
144 -120 0
-145 144 0
-145 -120 0
145 -144 120 0
145 -121 0
-146 145 0
-146 -121 0
146 -145 121 0
146 -122 0
-147 146 0
-147 -122 0
147 -146 122 0
147 -123 0
-148 147 0
-148 -123 0
148 -147 123 0
148 -124 0
-149 148 0
-149 -124 0
149 -148 124 0
149 -125 0
-150 149 0
-150 -125 0
150 -149 125 0
150 -126 0
-151 150 0
-151 -126 0
151 -150 126 0
151 -127 0
-152 151 0
-152 -127 0
152 -151 127 0
152 -128 0
-153 152 0
-153 -128 0
153 -152 128 0
153 -129 0
-154 153 0
-154 -129 0
154 -153 129 0
154 -130 0
-155 154 0
-155 -130 0
155 -154 130 0
155 -131 0
-156 155 0
-156 -131 0
156 -155 131 0
156 -132 0
-157 156 0
-157 -132 0
157 -156 132 0
157 -133 0
-158 157 0
-158 -133 0
158 -157 133 0
158 -134 0
-159 158 0
-159 -134 0
159 -158 134 0
159 -135 0
-160 159 0
-160 -135 0
160 -159 135 0
160 -136 0
-161 160 0
-161 -136 0
161 -160 136 0
161 -137 0
-162 161 0
-162 -137 0
162 -161 137 0
162 -138 0
-163 162 0
-163 -138 0
163 -162 138 0
163 -139 0
-164 163 0
-164 -139 0
164 -163 139 0
164 -140 0
-165 164 0
-165 -140 0
165 -164 140 0
165 -141 0
-166 165 0
-166 -141 0
166 -165 141 0
-167 5 0
-167 2 0
167 -5 -2 0
-168 6 0
-168 3 0
168 -6 -3 0
-169 7 0
-169 4 0
169 -7 -4 0
-170 8 0
-170 5 0
170 -8 -5 0
-171 9 0
-171 6 0
171 -9 -6 0
-172 10 0
-172 7 0
172 -10 -7 0
-173 11 0
-173 8 0
173 -11 -8 0
-174 12 0
-174 9 0
174 -12 -9 0
-175 13 0
-175 10 0
175 -13 -10 0
-176 14 0
-176 35 0
176 -14 -35 0
-177 15 0
-177 36 0
177 -15 -36 0
-178 16 0
-178 37 0
178 -16 -37 0
-179 17 0
-179 14 0
179 -17 -14 0
-180 18 0
-180 15 0
180 -18 -15 0
-181 19 0
-181 16 0
181 -19 -16 0
-182 20 0
-182 17 0
182 -20 -17 0
-183 21 0
-183 18 0
183 -21 -18 0
-184 22 0
-184 19 0
184 -22 -19 0
-185 23 0
-185 20 0
185 -23 -20 0
-186 24 0
-186 21 0
186 -24 -21 0
-187 25 0
-187 22 0
187 -25 -22 0
-188 26 0
-188 23 0
188 -26 -23 0
-189 27 0
-189 24 0
189 -27 -24 0
-190 28 0
-190 25 0
190 -28 -25 0
-191 29 0
-191 26 0
191 -29 -26 0
-192 30 0
-192 27 0
192 -30 -27 0
-193 31 0
-193 28 0
193 -31 -28 0
-194 32 0
-194 29 0
194 -32 -29 0
-195 33 0
-195 30 0
195 -33 -30 0
-196 34 0
-196 31 0
196 -34 -31 0
-197 35 0
-197 32 0
197 -35 -32 0
-198 36 0
-198 33 0
198 -36 -33 0
-199 37 0
-199 34 0
199 -37 -34 0
-50 0
-167 0
-168 0
-169 0
-170 0
-171 0
-172 0
-173 0
-174 0
-175 0
-59 0
1 -176 0
-176 -177 0
-200 -176 0
-200 -177 0
200 176 177 0
200 -178 0
-201 200 0
-201 -178 0
201 -200 178 0
201 -179 0
-202 201 0
-202 -179 0
202 -201 179 0
202 -180 0
-203 202 0
-203 -180 0
203 -202 180 0
203 -181 0
-204 203 0
-204 -181 0
204 -203 181 0
204 -182 0
-205 204 0
-205 -182 0
205 -204 182 0
205 -183 0
-206 205 0
-206 -183 0
206 -205 183 0
206 -184 0
-207 206 0
-207 -184 0
207 -206 184 0
207 -185 0
-208 207 0
-208 -185 0
208 -207 185 0
208 -186 0
-209 208 0
-209 -186 0
209 -208 186 0
209 -187 0
-210 209 0
-210 -187 0
210 -209 187 0
210 -188 0
-211 210 0
-211 -188 0
211 -210 188 0
211 -189 0
-212 211 0
-212 -189 0
212 -211 189 0
212 -190 0
-213 212 0
-213 -190 0
213 -212 190 0
213 -191 0
-214 213 0
-214 -191 0
214 -213 191 0
214 -192 0
-215 214 0
-215 -192 0
215 -214 192 0
215 -193 0
-216 215 0
-216 -193 0
216 -215 193 0
216 -194 0
-217 216 0
-217 -194 0
217 -216 194 0
217 -195 0
-218 217 0
-218 -195 0
218 -217 195 0
218 -196 0
-219 218 0
-219 -196 0
219 -218 196 0
219 -197 0
-220 219 0
-220 -197 0
220 -219 197 0
220 -198 0
-221 220 0
-221 -198 0
221 -220 198 0
221 -199 0
-222 221 0
-222 -199 0
222 -221 199 0
-223 6 0
-223 2 0
223 -6 -2 0
-224 7 0
-224 3 0
224 -7 -3 0
-225 8 0
-225 4 0
225 -8 -4 0
-226 9 0
-226 5 0
226 -9 -5 0
-227 10 0
-227 6 0
227 -10 -6 0
-228 11 0
-228 7 0
228 -11 -7 0
-229 12 0
-229 8 0
229 -12 -8 0
-230 13 0
-230 9 0
230 -13 -9 0
-231 14 0
-231 34 0
231 -14 -34 0
-232 15 0
-232 35 0
232 -15 -35 0
-233 16 0
-233 36 0
233 -16 -36 0
-234 17 0
-234 37 0
234 -17 -37 0
-235 18 0
-235 14 0
235 -18 -14 0
-236 19 0
-236 15 0
236 -19 -15 0
-237 20 0
-237 16 0
237 -20 -16 0
-238 21 0
-238 17 0
238 -21 -17 0
-239 22 0
-239 18 0
239 -22 -18 0
-240 23 0
-240 19 0
240 -23 -19 0
-241 24 0
-241 20 0
241 -24 -20 0
-242 25 0
-242 21 0
242 -25 -21 0
-243 26 0
-243 22 0
243 -26 -22 0
-244 27 0
-244 23 0
244 -27 -23 0
-245 28 0
-245 24 0
245 -28 -24 0
-246 29 0
-246 25 0
246 -29 -25 0
-247 30 0
-247 26 0
247 -30 -26 0
-248 31 0
-248 27 0
248 -31 -27 0
-249 32 0
-249 28 0
249 -32 -28 0
-250 33 0
-250 29 0
250 -33 -29 0
-251 34 0
-251 30 0
251 -34 -30 0
-252 35 0
-252 31 0
252 -35 -31 0
-253 36 0
-253 32 0
253 -36 -32 0
-254 37 0
-254 33 0
254 -37 -33 0
-108 0
-223 0
-224 0
-225 0
-226 0
-227 0
-228 0
-229 0
-230 0
-116 0
1 -3 0
-3 -11 0
-255 -3 0
-255 -11 0
255 3 11 0
255 -231 0
-256 255 0
-256 -231 0
256 -255 231 0
256 -232 0
-257 256 0
-257 -232 0
257 -256 232 0
257 -233 0
-258 257 0
-258 -233 0
258 -257 233 0
258 -234 0
-259 258 0
-259 -234 0
259 -258 234 0
259 -235 0
-260 259 0
-260 -235 0
260 -259 235 0
260 -236 0
-261 260 0
-261 -236 0
261 -260 236 0
261 -237 0
-262 261 0
-262 -237 0
262 -261 237 0
262 -238 0
-263 262 0
-263 -238 0
263 -262 238 0
263 -239 0
-264 263 0
-264 -239 0
264 -263 239 0
264 -240 0
-265 264 0
-265 -240 0
265 -264 240 0
265 -241 0
-266 265 0
-266 -241 0
266 -265 241 0
266 -242 0
-267 266 0
-267 -242 0
267 -266 242 0
267 -243 0
-268 267 0
-268 -243 0
268 -267 243 0
268 -244 0
-269 268 0
-269 -244 0
269 -268 244 0
269 -245 0
-270 269 0
-270 -245 0
270 -269 245 0
270 -246 0
-271 270 0
-271 -246 0
271 -270 246 0
271 -247 0
-272 271 0
-272 -247 0
272 -271 247 0
272 -248 0
-273 272 0
-273 -248 0
273 -272 248 0
273 -249 0
-274 273 0
-274 -249 0
274 -273 249 0
274 -250 0
-275 274 0
-275 -250 0
275 -274 250 0
275 -251 0
-276 275 0
-276 -251 0
276 -275 251 0
276 -252 0
-277 276 0
-277 -252 0
277 -276 252 0
277 -253 0
-278 277 0
-278 -253 0
278 -277 253 0
278 -254 0
-279 278 0
-279 -254 0
279 -278 254 0
-280 7 0
-280 2 0
280 -7 -2 0
-281 8 0
-281 3 0
281 -8 -3 0
-282 9 0
-282 4 0
282 -9 -4 0
-283 10 0
-283 5 0
283 -10 -5 0
-284 11 0
-284 6 0
284 -11 -6 0
-285 12 0
-285 7 0
285 -12 -7 0
-286 13 0
-286 8 0
286 -13 -8 0
-287 14 0
-287 33 0
287 -14 -33 0
-288 15 0
-288 34 0
288 -15 -34 0
-289 16 0
-289 35 0
289 -16 -35 0
-290 17 0
-290 36 0
290 -17 -36 0
-291 18 0
-291 37 0
291 -18 -37 0
-292 19 0
-292 14 0
292 -19 -14 0
-293 20 0
-293 15 0
293 -20 -15 0
-294 21 0
-294 16 0
294 -21 -16 0
-295 22 0
-295 17 0
295 -22 -17 0
-296 23 0
-296 18 0
296 -23 -18 0
-297 24 0
-297 19 0
297 -24 -19 0
-298 25 0
-298 20 0
298 -25 -20 0
-299 26 0
-299 21 0
299 -26 -21 0
-300 27 0
-300 22 0
300 -27 -22 0
-301 28 0
-301 23 0
301 -28 -23 0
-302 29 0
-302 24 0
302 -29 -24 0
-303 30 0
-303 25 0
303 -30 -25 0
-304 31 0
-304 26 0
304 -31 -26 0
-305 32 0
-305 27 0
305 -32 -27 0
-306 33 0
-306 28 0
306 -33 -28 0
-307 34 0
-307 29 0
307 -34 -29 0
-308 35 0
-308 30 0
308 -35 -30 0
-309 36 0
-309 31 0
309 -36 -31 0
-310 37 0
-310 32 0
310 -37 -32 0
-167 0
-51 0
-280 0
-281 0
-282 0
-283 0
-284 0
-285 0
-286 0
-174 0
-58 0
1 -287 0
-287 -288 0
-311 -287 0
-311 -288 0
311 287 288 0
311 -289 0
-312 311 0
-312 -289 0
312 -311 289 0
312 -290 0
-313 312 0
-313 -290 0
313 -312 290 0
313 -291 0
-314 313 0
-314 -291 0
314 -313 291 0
314 -292 0
-315 314 0
-315 -292 0
315 -314 292 0
315 -293 0
-316 315 0
-316 -293 0
316 -315 293 0
316 -294 0
-317 316 0
-317 -294 0
317 -316 294 0
317 -295 0
-318 317 0
-318 -295 0
318 -317 295 0
318 -296 0
-319 318 0
-319 -296 0
319 -318 296 0
319 -297 0
-320 319 0
-320 -297 0
320 -319 297 0
320 -298 0
-321 320 0
-321 -298 0
321 -320 298 0
321 -299 0
-322 321 0
-322 -299 0
322 -321 299 0
322 -300 0
-323 322 0
-323 -300 0
323 -322 300 0
323 -301 0
-324 323 0
-324 -301 0
324 -323 301 0
324 -302 0
-325 324 0
-325 -302 0
325 -324 302 0
325 -303 0
-326 325 0
-326 -303 0
326 -325 303 0
326 -304 0
-327 326 0
-327 -304 0
327 -326 304 0
327 -305 0
-328 327 0
-328 -305 0
328 -327 305 0
328 -306 0
-329 328 0
-329 -306 0
329 -328 306 0
329 -307 0
-330 329 0
-330 -307 0
330 -329 307 0
330 -308 0
-331 330 0
-331 -308 0
331 -330 308 0
331 -309 0
-332 331 0
-332 -309 0
332 -331 309 0
332 -310 0
-333 332 0
-333 -310 0
333 -332 310 0
-334 8 0
-334 2 0
334 -8 -2 0
-335 9 0
-335 3 0
335 -9 -3 0
-336 10 0
-336 4 0
336 -10 -4 0
-337 11 0
-337 5 0
337 -11 -5 0
-338 12 0
-338 6 0
338 -12 -6 0
-339 13 0
-339 7 0
339 -13 -7 0
-340 14 0
-340 32 0
340 -14 -32 0
-341 15 0
-341 33 0
341 -15 -33 0
-342 16 0
-342 34 0
342 -16 -34 0
-343 17 0
-343 35 0
343 -17 -35 0
-344 18 0
-344 36 0
344 -18 -36 0
-345 19 0
-345 37 0
345 -19 -37 0
-346 20 0
-346 14 0
346 -20 -14 0
-347 21 0
-347 15 0
347 -21 -15 0
-348 22 0
-348 16 0
348 -22 -16 0
-349 23 0
-349 17 0
349 -23 -17 0
-350 24 0
-350 18 0
350 -24 -18 0
-351 25 0
-351 19 0
351 -25 -19 0
-352 26 0
-352 20 0
352 -26 -20 0
-353 27 0
-353 21 0
353 -27 -21 0
-354 28 0
-354 22 0
354 -28 -22 0
-355 29 0
-355 23 0
355 -29 -23 0
-356 30 0
-356 24 0
356 -30 -24 0
-357 31 0
-357 25 0
357 -31 -25 0
-358 32 0
-358 26 0
358 -32 -26 0
-359 33 0
-359 27 0
359 -33 -27 0
-360 34 0
-360 28 0
360 -34 -28 0
-361 35 0
-361 29 0
361 -35 -29 0
-362 36 0
-362 30 0
362 -36 -30 0
-363 37 0
-363 31 0
363 -37 -31 0
-223 0
-109 0
-334 0
-335 0
-336 0
-337 0
-338 0
-339 0
-229 0
-115 0
1 -4 0
-4 -10 0
-364 -4 0
-364 -10 0
364 4 10 0
364 -340 0
-365 364 0
-365 -340 0
365 -364 340 0
365 -341 0
-366 365 0
-366 -341 0
366 -365 341 0
366 -342 0
-367 366 0
-367 -342 0
367 -366 342 0
367 -343 0
-368 367 0
-368 -343 0
368 -367 343 0
368 -344 0
-369 368 0
-369 -344 0
369 -368 344 0
369 -345 0
-370 369 0
-370 -345 0
370 -369 345 0
370 -346 0
-371 370 0
-371 -346 0
371 -370 346 0
371 -347 0
-372 371 0
-372 -347 0
372 -371 347 0
372 -348 0
-373 372 0
-373 -348 0
373 -372 348 0
373 -349 0
-374 373 0
-374 -349 0
374 -373 349 0
374 -350 0
-375 374 0
-375 -350 0
375 -374 350 0
375 -351 0
-376 375 0
-376 -351 0
376 -375 351 0
376 -352 0
-377 376 0
-377 -352 0
377 -376 352 0
377 -353 0
-378 377 0
-378 -353 0
378 -377 353 0
378 -354 0
-379 378 0
-379 -354 0
379 -378 354 0
379 -355 0
-380 379 0
-380 -355 0
380 -379 355 0
380 -356 0
-381 380 0
-381 -356 0
381 -380 356 0
381 -357 0
-382 381 0
-382 -357 0
382 -381 357 0
382 -358 0
-383 382 0
-383 -358 0
383 -382 358 0
383 -359 0
-384 383 0
-384 -359 0
384 -383 359 0
384 -360 0
-385 384 0
-385 -360 0
385 -384 360 0
385 -361 0
-386 385 0
-386 -361 0
386 -385 361 0
386 -362 0
-387 386 0
-387 -362 0
387 -386 362 0
387 -363 0
-388 387 0
-388 -363 0
388 -387 363 0
-389 9 0
-389 2 0
389 -9 -2 0
-390 10 0
-390 3 0
390 -10 -3 0
-391 11 0
-391 4 0
391 -11 -4 0
-392 12 0
-392 5 0
392 -12 -5 0
-393 13 0
-393 6 0
393 -13 -6 0
-394 14 0
-394 31 0
394 -14 -31 0
-395 15 0
-395 32 0
395 -15 -32 0
-396 16 0
-396 33 0
396 -16 -33 0
-397 17 0
-397 34 0
397 -17 -34 0
-398 18 0
-398 35 0
398 -18 -35 0
-399 19 0
-399 36 0
399 -19 -36 0
-400 20 0
-400 37 0
400 -20 -37 0
-401 21 0
-401 14 0
401 -21 -14 0
-402 22 0
-402 15 0
402 -22 -15 0
-403 23 0
-403 16 0
403 -23 -16 0
-404 24 0
-404 17 0
404 -24 -17 0
-405 25 0
-405 18 0
405 -25 -18 0
-406 26 0
-406 19 0
406 -26 -19 0
-407 27 0
-407 20 0
407 -27 -20 0
-408 28 0
-408 21 0
408 -28 -21 0
-409 29 0
-409 22 0
409 -29 -22 0
-410 30 0
-410 23 0
410 -30 -23 0
-411 31 0
-411 24 0
411 -31 -24 0
-412 32 0
-412 25 0
412 -32 -25 0
-413 33 0
-413 26 0
413 -33 -26 0
-414 34 0
-414 27 0
414 -34 -27 0
-415 35 0
-415 28 0
415 -35 -28 0
-416 36 0
-416 29 0
416 -36 -29 0
-417 37 0
-417 30 0
417 -37 -30 0
-280 0
-168 0
-52 0
-389 0
-390 0
-391 0
-392 0
-393 0
-285 0
-173 0
-57 0
1 -394 0
-394 -395 0
-418 -394 0
-418 -395 0
418 394 395 0
418 -396 0
-419 418 0
-419 -396 0
419 -418 396 0
419 -397 0
-420 419 0
-420 -397 0
420 -419 397 0
420 -398 0
-421 420 0
-421 -398 0
421 -420 398 0
421 -399 0
-422 421 0
-422 -399 0
422 -421 399 0
422 -400 0
-423 422 0
-423 -400 0
423 -422 400 0
423 -401 0
-424 423 0
-424 -401 0
424 -423 401 0
424 -402 0
-425 424 0
-425 -402 0
425 -424 402 0
425 -403 0
-426 425 0
-426 -403 0
426 -425 403 0
426 -404 0
-427 426 0
-427 -404 0
427 -426 404 0
427 -405 0
-428 427 0
-428 -405 0
428 -427 405 0
428 -406 0
-429 428 0
-429 -406 0
429 -428 406 0
429 -407 0
-430 429 0
-430 -407 0
430 -429 407 0
430 -408 0
-431 430 0
-431 -408 0
431 -430 408 0
431 -409 0
-432 431 0
-432 -409 0
432 -431 409 0
432 -410 0
-433 432 0
-433 -410 0
433 -432 410 0
433 -411 0
-434 433 0
-434 -411 0
434 -433 411 0
434 -412 0
-435 434 0
-435 -412 0
435 -434 412 0
435 -413 0
-436 435 0
-436 -413 0
436 -435 413 0
436 -414 0
-437 436 0
-437 -414 0
437 -436 414 0
437 -415 0
-438 437 0
-438 -415 0
438 -437 415 0
438 -416 0
-439 438 0
-439 -416 0
439 -438 416 0
439 -417 0
-440 439 0
-440 -417 0
440 -439 417 0
-441 10 0
-441 2 0
441 -10 -2 0
-442 11 0
-442 3 0
442 -11 -3 0
-443 12 0
-443 4 0
443 -12 -4 0
-444 13 0
-444 5 0
444 -13 -5 0
-445 14 0
-445 30 0
445 -14 -30 0
-446 15 0
-446 31 0
446 -15 -31 0
-447 16 0
-447 32 0
447 -16 -32 0
-448 17 0
-448 33 0
448 -17 -33 0
-449 18 0
-449 34 0
449 -18 -34 0
-450 19 0
-450 35 0
450 -19 -35 0
-451 20 0
-451 36 0
451 -20 -36 0
-452 21 0
-452 37 0
452 -21 -37 0
-453 22 0
-453 14 0
453 -22 -14 0
-454 23 0
-454 15 0
454 -23 -15 0
-455 24 0
-455 16 0
455 -24 -16 0
-456 25 0
-456 17 0
456 -25 -17 0
-457 26 0
-457 18 0
457 -26 -18 0
-458 27 0
-458 19 0
458 -27 -19 0
-459 28 0
-459 20 0
459 -28 -20 0
-460 29 0
-460 21 0
460 -29 -21 0
-461 30 0
-461 22 0
461 -30 -22 0
-462 31 0
-462 23 0
462 -31 -23 0
-463 32 0
-463 24 0
463 -32 -24 0
-464 33 0
-464 25 0
464 -33 -25 0
-465 34 0
-465 26 0
465 -34 -26 0
-466 35 0
-466 27 0
466 -35 -27 0
-467 36 0
-467 28 0
467 -36 -28 0
-468 37 0
-468 29 0
468 -37 -29 0
-334 0
-224 0
-110 0
-441 0
-442 0
-443 0
-444 0
-338 0
-228 0
-114 0
1 -5 0
-5 -9 0
-469 -5 0
-469 -9 0
469 5 9 0
469 -445 0
-470 469 0
-470 -445 0
470 -469 445 0
470 -446 0
-471 470 0
-471 -446 0
471 -470 446 0
471 -447 0
-472 471 0
-472 -447 0
472 -471 447 0
472 -448 0
-473 472 0
-473 -448 0
473 -472 448 0
473 -449 0
-474 473 0
-474 -449 0
474 -473 449 0
474 -450 0
-475 474 0
-475 -450 0
475 -474 450 0
475 -451 0
-476 475 0
-476 -451 0
476 -475 451 0
476 -452 0
-477 476 0
-477 -452 0
477 -476 452 0
477 -453 0
-478 477 0
-478 -453 0
478 -477 453 0
478 -454 0
-479 478 0
-479 -454 0
479 -478 454 0
479 -455 0
-480 479 0
-480 -455 0
480 -479 455 0
480 -456 0
-481 480 0
-481 -456 0
481 -480 456 0
481 -457 0
-482 481 0
-482 -457 0
482 -481 457 0
482 -458 0
-483 482 0
-483 -458 0
483 -482 458 0
483 -459 0
-484 483 0
-484 -459 0
484 -483 459 0
484 -460 0
-485 484 0
-485 -460 0
485 -484 460 0
485 -461 0
-486 485 0
-486 -461 0
486 -485 461 0
486 -462 0
-487 486 0
-487 -462 0
487 -486 462 0
487 -463 0
-488 487 0
-488 -463 0
488 -487 463 0
488 -464 0
-489 488 0
-489 -464 0
489 -488 464 0
489 -465 0
-490 489 0
-490 -465 0
490 -489 465 0
490 -466 0
-491 490 0
-491 -466 0
491 -490 466 0
491 -467 0
-492 491 0
-492 -467 0
492 -491 467 0
492 -468 0
-493 492 0
-493 -468 0
493 -492 468 0
-494 11 0
-494 2 0
494 -11 -2 0
-495 12 0
-495 3 0
495 -12 -3 0
-496 13 0
-496 4 0
496 -13 -4 0
-497 14 0
-497 29 0
497 -14 -29 0
-498 15 0
-498 30 0
498 -15 -30 0
-499 16 0
-499 31 0
499 -16 -31 0
-500 17 0
-500 32 0
500 -17 -32 0
-501 18 0
-501 33 0
501 -18 -33 0
-502 19 0
-502 34 0
502 -19 -34 0
-503 20 0
-503 35 0
503 -20 -35 0
-504 21 0
-504 36 0
504 -21 -36 0
-505 22 0
-505 37 0
505 -22 -37 0
-506 23 0
-506 14 0
506 -23 -14 0
-507 24 0
-507 15 0
507 -24 -15 0
-508 25 0
-508 16 0
508 -25 -16 0
-509 26 0
-509 17 0
509 -26 -17 0
-510 27 0
-510 18 0
510 -27 -18 0
-511 28 0
-511 19 0
511 -28 -19 0
-512 29 0
-512 20 0
512 -29 -20 0
-513 30 0
-513 21 0
513 -30 -21 0
-514 31 0
-514 22 0
514 -31 -22 0
-515 32 0
-515 23 0
515 -32 -23 0
-516 33 0
-516 24 0
516 -33 -24 0
-517 34 0
-517 25 0
517 -34 -25 0
-518 35 0
-518 26 0
518 -35 -26 0
-519 36 0
-519 27 0
519 -36 -27 0
-520 37 0
-520 28 0
520 -37 -28 0
-389 0
-281 0
-169 0
-53 0
-494 0
-495 0
-496 0
-392 0
-284 0
-172 0
-56 0
1 -497 0
-497 -498 0
-521 -497 0
-521 -498 0
521 497 498 0
521 -499 0
-522 521 0
-522 -499 0
522 -521 499 0
522 -500 0
-523 522 0
-523 -500 0
523 -522 500 0
523 -501 0
-524 523 0
-524 -501 0
524 -523 501 0
524 -502 0
-525 524 0
-525 -502 0
525 -524 502 0
525 -503 0
-526 525 0
-526 -503 0
526 -525 503 0
526 -504 0
-527 526 0
-527 -504 0
527 -526 504 0
527 -505 0
-528 527 0
-528 -505 0
528 -527 505 0
528 -506 0
-529 528 0
-529 -506 0
529 -528 506 0
529 -507 0
-530 529 0
-530 -507 0
530 -529 507 0
530 -508 0
-531 530 0
-531 -508 0
531 -530 508 0
531 -509 0
-532 531 0
-532 -509 0
532 -531 509 0
532 -510 0
-533 532 0
-533 -510 0
533 -532 510 0
533 -511 0
-534 533 0
-534 -511 0
534 -533 511 0
534 -512 0
-535 534 0
-535 -512 0
535 -534 512 0
535 -513 0
-536 535 0
-536 -513 0
536 -535 513 0
536 -514 0
-537 536 0
-537 -514 0
537 -536 514 0
537 -515 0
-538 537 0
-538 -515 0
538 -537 515 0
538 -516 0
-539 538 0
-539 -516 0
539 -538 516 0
539 -517 0
-540 539 0
-540 -517 0
540 -539 517 0
540 -518 0
-541 540 0
-541 -518 0
541 -540 518 0
541 -519 0
-542 541 0
-542 -519 0
542 -541 519 0
542 -520 0
-543 542 0
-543 -520 0
543 -542 520 0
-544 12 0
-544 2 0
544 -12 -2 0
-545 13 0
-545 3 0
545 -13 -3 0
-546 14 0
-546 28 0
546 -14 -28 0
-547 15 0
-547 29 0
547 -15 -29 0
-548 16 0
-548 30 0
548 -16 -30 0
-549 17 0
-549 31 0
549 -17 -31 0
-550 18 0
-550 32 0
550 -18 -32 0
-551 19 0
-551 33 0
551 -19 -33 0
-552 20 0
-552 34 0
552 -20 -34 0
-553 21 0
-553 35 0
553 -21 -35 0
-554 22 0
-554 36 0
554 -22 -36 0
-555 23 0
-555 37 0
555 -23 -37 0
-556 24 0
-556 14 0
556 -24 -14 0
-557 25 0
-557 15 0
557 -25 -15 0
-558 26 0
-558 16 0
558 -26 -16 0
-559 27 0
-559 17 0
559 -27 -17 0
-560 28 0
-560 18 0
560 -28 -18 0
-561 29 0
-561 19 0
561 -29 -19 0
-562 30 0
-562 20 0
562 -30 -20 0
-563 31 0
-563 21 0
563 -31 -21 0
-564 32 0
-564 22 0
564 -32 -22 0
-565 33 0
-565 23 0
565 -33 -23 0
-566 34 0
-566 24 0
566 -34 -24 0
-567 35 0
-567 25 0
567 -35 -25 0
-568 36 0
-568 26 0
568 -36 -26 0
-569 37 0
-569 27 0
569 -37 -27 0
-441 0
-335 0
-225 0
-111 0
-544 0
-545 0
-443 0
-337 0
-227 0
-113 0
1 -6 0
-6 -8 0
-570 -6 0
-570 -8 0
570 6 8 0
570 -546 0
-571 570 0
-571 -546 0
571 -570 546 0
571 -547 0
-572 571 0
-572 -547 0
572 -571 547 0
572 -548 0
-573 572 0
-573 -548 0
573 -572 548 0
573 -549 0
-574 573 0
-574 -549 0
574 -573 549 0
574 -550 0
-575 574 0
-575 -550 0
575 -574 550 0
575 -551 0
-576 575 0
-576 -551 0
576 -575 551 0
576 -552 0
-577 576 0
-577 -552 0
577 -576 552 0
577 -553 0
-578 577 0
-578 -553 0
578 -577 553 0
578 -554 0
-579 578 0
-579 -554 0
579 -578 554 0
579 -555 0
-580 579 0
-580 -555 0
580 -579 555 0
580 -556 0
-581 580 0
-581 -556 0
581 -580 556 0
581 -557 0
-582 581 0
-582 -557 0
582 -581 557 0
582 -558 0
-583 582 0
-583 -558 0
583 -582 558 0
583 -559 0
-584 583 0
-584 -559 0
584 -583 559 0
584 -560 0
-585 584 0
-585 -560 0
585 -584 560 0
585 -561 0
-586 585 0
-586 -561 0
586 -585 561 0
586 -562 0
-587 586 0
-587 -562 0
587 -586 562 0
587 -563 0
-588 587 0
-588 -563 0
588 -587 563 0
588 -564 0
-589 588 0
-589 -564 0
589 -588 564 0
589 -565 0
-590 589 0
-590 -565 0
590 -589 565 0
590 -566 0
-591 590 0
-591 -566 0
591 -590 566 0
591 -567 0
-592 591 0
-592 -567 0
592 -591 567 0
592 -568 0
-593 592 0
-593 -568 0
593 -592 568 0
593 -569 0
-594 593 0
-594 -569 0
594 -593 569 0
-595 13 0
-595 2 0
595 -13 -2 0
-596 14 0
-596 27 0
596 -14 -27 0
-597 15 0
-597 28 0
597 -15 -28 0
-598 16 0
-598 29 0
598 -16 -29 0
-599 17 0
-599 30 0
599 -17 -30 0
-600 18 0
-600 31 0
600 -18 -31 0
-601 19 0
-601 32 0
601 -19 -32 0
-602 20 0
-602 33 0
602 -20 -33 0
-603 21 0
-603 34 0
603 -21 -34 0
-604 22 0
-604 35 0
604 -22 -35 0
-605 23 0
-605 36 0
605 -23 -36 0
-606 24 0
-606 37 0
606 -24 -37 0
-607 25 0
-607 14 0
607 -25 -14 0
-608 26 0
-608 15 0
608 -26 -15 0
-609 27 0
-609 16 0
609 -27 -16 0
-610 28 0
-610 17 0
610 -28 -17 0
-611 29 0
-611 18 0
611 -29 -18 0
-612 30 0
-612 19 0
612 -30 -19 0
-613 31 0
-613 20 0
613 -31 -20 0
-614 32 0
-614 21 0
614 -32 -21 0
-615 33 0
-615 22 0
615 -33 -22 0
-616 34 0
-616 23 0
616 -34 -23 0
-617 35 0
-617 24 0
617 -35 -24 0
-618 36 0
-618 25 0
618 -36 -25 0
-619 37 0
-619 26 0
619 -37 -26 0
-494 0
-390 0
-282 0
-170 0
-54 0
-595 0
-495 0
-391 0
-283 0
-171 0
-55 0
1 -596 0
-596 -597 0
-620 -596 0
-620 -597 0
620 596 597 0
620 -598 0
-621 620 0
-621 -598 0
621 -620 598 0
621 -599 0
-622 621 0
-622 -599 0
622 -621 599 0
622 -600 0
-623 622 0
-623 -600 0
623 -622 600 0
623 -601 0
-624 623 0
-624 -601 0
624 -623 601 0
624 -602 0
-625 624 0
-625 -602 0
625 -624 602 0
625 -603 0
-626 625 0
-626 -603 0
626 -625 603 0
626 -604 0
-627 626 0
-627 -604 0
627 -626 604 0
627 -605 0
-628 627 0
-628 -605 0
628 -627 605 0
628 -606 0
-629 628 0
-629 -606 0
629 -628 606 0
629 -607 0
-630 629 0
-630 -607 0
630 -629 607 0
630 -608 0
-631 630 0
-631 -608 0
631 -630 608 0
631 -609 0
-632 631 0
-632 -609 0
632 -631 609 0
632 -610 0
-633 632 0
-633 -610 0
633 -632 610 0
633 -611 0
-634 633 0
-634 -611 0
634 -633 611 0
634 -612 0
-635 634 0
-635 -612 0
635 -634 612 0
635 -613 0
-636 635 0
-636 -613 0
636 -635 613 0
636 -614 0
-637 636 0
-637 -614 0
637 -636 614 0
637 -615 0
-638 637 0
-638 -615 0
638 -637 615 0
638 -616 0
-639 638 0
-639 -616 0
639 -638 616 0
639 -617 0
-640 639 0
-640 -617 0
640 -639 617 0
640 -618 0
-641 640 0
-641 -618 0
641 -640 618 0
641 -619 0
-642 641 0
-642 -619 0
642 -641 619 0
-643 14 0
-643 26 0
643 -14 -26 0
-644 15 0
-644 27 0
644 -15 -27 0
-645 16 0
-645 28 0
645 -16 -28 0
-646 17 0
-646 29 0
646 -17 -29 0
-647 18 0
-647 30 0
647 -18 -30 0
-648 19 0
-648 31 0
648 -19 -31 0
-649 20 0
-649 32 0
649 -20 -32 0
-650 21 0
-650 33 0
650 -21 -33 0
-651 22 0
-651 34 0
651 -22 -34 0
-652 23 0
-652 35 0
652 -23 -35 0
-653 24 0
-653 36 0
653 -24 -36 0
-654 25 0
-654 37 0
654 -25 -37 0
-544 0
-442 0
-336 0
-226 0
-112 0
-7 0
-643 0
-644 0
-645 0
-646 0
-647 0
-648 0
-649 0
-650 0
-651 0
-652 0
-653 0
-654 0
-655 2 0
-655 37 0
655 -2 -37 0
-656 3 0
-656 36 0
656 -3 -36 0
-657 4 0
-657 35 0
657 -4 -35 0
-658 5 0
-658 34 0
658 -5 -34 0
-659 6 0
-659 33 0
659 -6 -33 0
-660 7 0
-660 32 0
660 -7 -32 0
-661 8 0
-661 31 0
661 -8 -31 0
-662 9 0
-662 30 0
662 -9 -30 0
-663 10 0
-663 29 0
663 -10 -29 0
-664 11 0
-664 28 0
664 -11 -28 0
-665 12 0
-665 27 0
665 -12 -27 0
-666 13 0
-666 26 0
666 -13 -26 0
-667 12 0
-667 25 0
667 -12 -25 0
-668 11 0
-668 24 0
668 -11 -24 0
-669 10 0
-669 23 0
669 -10 -23 0
-670 9 0
-670 22 0
670 -9 -22 0
-671 8 0
-671 21 0
671 -8 -21 0
-672 7 0
-672 20 0
672 -7 -20 0
-673 6 0
-673 19 0
673 -6 -19 0
-674 5 0
-674 18 0
674 -5 -18 0
-675 4 0
-675 17 0
675 -4 -17 0
-676 3 0
-676 16 0
676 -3 -16 0
-677 2 0
-677 15 0
677 -2 -15 0
-678 15 0
-678 38 0
678 -15 -38 0
-679 16 0
-679 39 0
679 -16 -39 0
-680 17 0
-680 40 0
680 -17 -40 0
-681 18 0
-681 41 0
681 -18 -41 0
-682 19 0
-682 42 0
682 -19 -42 0
-683 20 0
-683 43 0
683 -20 -43 0
-684 21 0
-684 44 0
684 -21 -44 0
-685 22 0
-685 45 0
685 -22 -45 0
-686 23 0
-686 46 0
686 -23 -46 0
-687 24 0
-687 47 0
687 -24 -47 0
-688 25 0
-688 48 0
688 -25 -48 0
-689 26 0
-689 49 0
689 -26 -49 0
-690 27 0
-690 48 0
690 -27 -48 0
-691 28 0
-691 47 0
691 -28 -47 0
-692 29 0
-692 46 0
692 -29 -46 0
-693 30 0
-693 45 0
693 -30 -45 0
-694 31 0
-694 44 0
694 -31 -44 0
-695 32 0
-695 43 0
695 -32 -43 0
-696 33 0
-696 42 0
696 -33 -42 0
-697 34 0
-697 41 0
697 -34 -41 0
-698 35 0
-698 40 0
698 -35 -40 0
-699 36 0
-699 39 0
699 -36 -39 0
-700 37 0
-700 38 0
700 -37 -38 0
1 -655 0
-655 -656 0
-701 -655 0
-701 -656 0
701 655 656 0
701 -657 0
-702 701 0
-702 -657 0
702 -701 657 0
702 -658 0
-703 702 0
-703 -658 0
703 -702 658 0
703 -659 0
-704 703 0
-704 -659 0
704 -703 659 0
704 -660 0
-705 704 0
-705 -660 0
705 -704 660 0
705 -661 0
-706 705 0
-706 -661 0
706 -705 661 0
706 -662 0
-707 706 0
-707 -662 0
707 -706 662 0
707 -663 0
-708 707 0
-708 -663 0
708 -707 663 0
708 -664 0
-709 708 0
-709 -664 0
709 -708 664 0
709 -665 0
-710 709 0
-710 -665 0
710 -709 665 0
710 -666 0
-711 710 0
-711 -666 0
711 -710 666 0
711 -667 0
-712 711 0
-712 -667 0
712 -711 667 0
712 -668 0
-713 712 0
-713 -668 0
713 -712 668 0
713 -669 0
-714 713 0
-714 -669 0
714 -713 669 0
714 -670 0
-715 714 0
-715 -670 0
715 -714 670 0
715 -671 0
-716 715 0
-716 -671 0
716 -715 671 0
716 -672 0
-717 716 0
-717 -672 0
717 -716 672 0
717 -673 0
-718 717 0
-718 -673 0
718 -717 673 0
718 -674 0
-719 718 0
-719 -674 0
719 -718 674 0
719 -675 0
-720 719 0
-720 -675 0
720 -719 675 0
720 -676 0
-721 720 0
-721 -676 0
721 -720 676 0
721 -677 0
-722 721 0
-722 -677 0
722 -721 677 0
722 -678 0
-723 722 0
-723 -678 0
723 -722 678 0
723 -679 0
-724 723 0
-724 -679 0
724 -723 679 0
724 -680 0
-725 724 0
-725 -680 0
725 -724 680 0
725 -681 0
-726 725 0
-726 -681 0
726 -725 681 0
726 -682 0
-727 726 0
-727 -682 0
727 -726 682 0
727 -683 0
-728 727 0
-728 -683 0
728 -727 683 0
728 -684 0
-729 728 0
-729 -684 0
729 -728 684 0
729 -685 0
-730 729 0
-730 -685 0
730 -729 685 0
730 -686 0
-731 730 0
-731 -686 0
731 -730 686 0
731 -687 0
-732 731 0
-732 -687 0
732 -731 687 0
732 -688 0
-733 732 0
-733 -688 0
733 -732 688 0
733 -689 0
-734 733 0
-734 -689 0
734 -733 689 0
734 -690 0
-735 734 0
-735 -690 0
735 -734 690 0
735 -691 0
-736 735 0
-736 -691 0
736 -735 691 0
736 -692 0
-737 736 0
-737 -692 0
737 -736 692 0
737 -693 0
-738 737 0
-738 -693 0
738 -737 693 0
738 -694 0
-739 738 0
-739 -694 0
739 -738 694 0
739 -695 0
-740 739 0
-740 -695 0
740 -739 695 0
740 -696 0
-741 740 0
-741 -696 0
741 -740 696 0
741 -697 0
-742 741 0
-742 -697 0
742 -741 697 0
742 -698 0
-743 742 0
-743 -698 0
743 -742 698 0
743 -699 0
-744 743 0
-744 -699 0
744 -743 699 0
744 -700 0
-745 744 0
-745 -700 0
745 -744 700 0
-746 2 0
-746 14 0
746 -2 -14 0
-747 3 0
-747 37 0
747 -3 -37 0
-748 4 0
-748 36 0
748 -4 -36 0
-749 5 0
-749 35 0
749 -5 -35 0
-750 6 0
-750 34 0
750 -6 -34 0
-751 7 0
-751 33 0
751 -7 -33 0
-752 8 0
-752 32 0
752 -8 -32 0
-753 9 0
-753 31 0
753 -9 -31 0
-754 10 0
-754 30 0
754 -10 -30 0
-755 11 0
-755 29 0
755 -11 -29 0
-756 12 0
-756 28 0
756 -12 -28 0
-757 13 0
-757 27 0
757 -13 -27 0
-758 12 0
-758 26 0
758 -12 -26 0
-759 11 0
-759 25 0
759 -11 -25 0
-760 10 0
-760 24 0
760 -10 -24 0
-761 9 0
-761 23 0
761 -9 -23 0
-762 8 0
-762 22 0
762 -8 -22 0
-763 7 0
-763 21 0
763 -7 -21 0
-764 6 0
-764 20 0
764 -6 -20 0
-765 5 0
-765 19 0
765 -5 -19 0
-766 4 0
-766 18 0
766 -4 -18 0
-767 3 0
-767 17 0
767 -3 -17 0
-768 2 0
-768 16 0
768 -2 -16 0
-769 14 0
-769 38 0
769 -14 -38 0
-770 16 0
-770 38 0
770 -16 -38 0
-771 17 0
-771 39 0
771 -17 -39 0
-772 18 0
-772 40 0
772 -18 -40 0
-773 19 0
-773 41 0
773 -19 -41 0
-774 20 0
-774 42 0
774 -20 -42 0
-775 21 0
-775 43 0
775 -21 -43 0
-776 22 0
-776 44 0
776 -22 -44 0
-777 23 0
-777 45 0
777 -23 -45 0
-778 24 0
-778 46 0
778 -24 -46 0
-779 25 0
-779 47 0
779 -25 -47 0
-780 26 0
-780 48 0
780 -26 -48 0
-781 27 0
-781 49 0
781 -27 -49 0
-782 28 0
-782 48 0
782 -28 -48 0
-783 29 0
-783 47 0
783 -29 -47 0
-784 30 0
-784 46 0
784 -30 -46 0
-785 31 0
-785 45 0
785 -31 -45 0
-786 32 0
-786 44 0
786 -32 -44 0
-787 33 0
-787 43 0
787 -33 -43 0
-788 34 0
-788 42 0
788 -34 -42 0
-789 35 0
-789 41 0
789 -35 -41 0
-790 36 0
-790 40 0
790 -36 -40 0
-791 37 0
-791 39 0
791 -37 -39 0
1 -746 0
-746 -747 0
-792 -746 0
-792 -747 0
792 746 747 0
792 -748 0
-793 792 0
-793 -748 0
793 -792 748 0
793 -749 0
-794 793 0
-794 -749 0
794 -793 749 0
794 -750 0
-795 794 0
-795 -750 0
795 -794 750 0
795 -751 0
-796 795 0
-796 -751 0
796 -795 751 0
796 -752 0
-797 796 0
-797 -752 0
797 -796 752 0
797 -753 0
-798 797 0
-798 -753 0
798 -797 753 0
798 -754 0
-799 798 0
-799 -754 0
799 -798 754 0
799 -755 0
-800 799 0
-800 -755 0
800 -799 755 0
800 -756 0
-801 800 0
-801 -756 0
801 -800 756 0
801 -757 0
-802 801 0
-802 -757 0
802 -801 757 0
802 -758 0
-803 802 0
-803 -758 0
803 -802 758 0
803 -759 0
-804 803 0
-804 -759 0
804 -803 759 0
804 -760 0
-805 804 0
-805 -760 0
805 -804 760 0
805 -761 0
-806 805 0
-806 -761 0
806 -805 761 0
806 -762 0
-807 806 0
-807 -762 0
807 -806 762 0
807 -763 0
-808 807 0
-808 -763 0
808 -807 763 0
808 -764 0
-809 808 0
-809 -764 0
809 -808 764 0
809 -765 0
-810 809 0
-810 -765 0
810 -809 765 0
810 -766 0
-811 810 0
-811 -766 0
811 -810 766 0
811 -767 0
-812 811 0
-812 -767 0
812 -811 767 0
812 -768 0
-813 812 0
-813 -768 0
813 -812 768 0
813 -769 0
-814 813 0
-814 -769 0
814 -813 769 0
814 -770 0
-815 814 0
-815 -770 0
815 -814 770 0
815 -771 0
-816 815 0
-816 -771 0
816 -815 771 0
816 -772 0
-817 816 0
-817 -772 0
817 -816 772 0
817 -773 0
-818 817 0
-818 -773 0
818 -817 773 0
818 -774 0
-819 818 0
-819 -774 0
819 -818 774 0
819 -775 0
-820 819 0
-820 -775 0
820 -819 775 0
820 -776 0
-821 820 0
-821 -776 0
821 -820 776 0
821 -777 0
-822 821 0
-822 -777 0
822 -821 777 0
822 -778 0
-823 822 0
-823 -778 0
823 -822 778 0
823 -779 0
-824 823 0
-824 -779 0
824 -823 779 0
824 -780 0
-825 824 0
-825 -780 0
825 -824 780 0
825 -781 0
-826 825 0
-826 -781 0
826 -825 781 0
826 -782 0
-827 826 0
-827 -782 0
827 -826 782 0
827 -783 0
-828 827 0
-828 -783 0
828 -827 783 0
828 -784 0
-829 828 0
-829 -784 0
829 -828 784 0
829 -785 0
-830 829 0
-830 -785 0
830 -829 785 0
830 -786 0
-831 830 0
-831 -786 0
831 -830 786 0
831 -787 0
-832 831 0
-832 -787 0
832 -831 787 0
832 -788 0
-833 832 0
-833 -788 0
833 -832 788 0
833 -789 0
-834 833 0
-834 -789 0
834 -833 789 0
834 -790 0
-835 834 0
-835 -790 0
835 -834 790 0
835 -791 0
-836 835 0
-836 -791 0
836 -835 791 0
-837 3 0
-837 14 0
837 -3 -14 0
-838 4 0
-838 37 0
838 -4 -37 0
-839 5 0
-839 36 0
839 -5 -36 0
-840 6 0
-840 35 0
840 -6 -35 0
-841 7 0
-841 34 0
841 -7 -34 0
-842 8 0
-842 33 0
842 -8 -33 0
-843 9 0
-843 32 0
843 -9 -32 0
-844 10 0
-844 31 0
844 -10 -31 0
-845 11 0
-845 30 0
845 -11 -30 0
-846 12 0
-846 29 0
846 -12 -29 0
-847 13 0
-847 28 0
847 -13 -28 0
-848 11 0
-848 26 0
848 -11 -26 0
-849 10 0
-849 25 0
849 -10 -25 0
-850 9 0
-850 24 0
850 -9 -24 0
-851 8 0
-851 23 0
851 -8 -23 0
-852 7 0
-852 22 0
852 -7 -22 0
-853 6 0
-853 21 0
853 -6 -21 0
-854 5 0
-854 20 0
854 -5 -20 0
-855 4 0
-855 19 0
855 -4 -19 0
-856 3 0
-856 18 0
856 -3 -18 0
-857 2 0
-857 17 0
857 -2 -17 0
-858 14 0
-858 39 0
858 -14 -39 0
-859 17 0
-859 38 0
859 -17 -38 0
-860 18 0
-860 39 0
860 -18 -39 0
-861 19 0
-861 40 0
861 -19 -40 0
-862 20 0
-862 41 0
862 -20 -41 0
-863 21 0
-863 42 0
863 -21 -42 0
-864 22 0
-864 43 0
864 -22 -43 0
-865 23 0
-865 44 0
865 -23 -44 0
-866 24 0
-866 45 0
866 -24 -45 0
-867 25 0
-867 46 0
867 -25 -46 0
-868 26 0
-868 47 0
868 -26 -47 0
-869 28 0
-869 49 0
869 -28 -49 0
-870 29 0
-870 48 0
870 -29 -48 0
-871 30 0
-871 47 0
871 -30 -47 0
-872 31 0
-872 46 0
872 -31 -46 0
-873 32 0
-873 45 0
873 -32 -45 0
-874 33 0
-874 44 0
874 -33 -44 0
-875 34 0
-875 43 0
875 -34 -43 0
-876 35 0
-876 42 0
876 -35 -42 0
-877 36 0
-877 41 0
877 -36 -41 0
-878 37 0
-878 40 0
878 -37 -40 0
1 -677 0
-677 -837 0
-879 -677 0
-879 -837 0
879 677 837 0
879 -838 0
-880 879 0
-880 -838 0
880 -879 838 0
880 -839 0
-881 880 0
-881 -839 0
881 -880 839 0
881 -840 0
-882 881 0
-882 -840 0
882 -881 840 0
882 -841 0
-883 882 0
-883 -841 0
883 -882 841 0
883 -842 0
-884 883 0
-884 -842 0
884 -883 842 0
884 -843 0
-885 884 0
-885 -843 0
885 -884 843 0
885 -844 0
-886 885 0
-886 -844 0
886 -885 844 0
886 -845 0
-887 886 0
-887 -845 0
887 -886 845 0
887 -846 0
-888 887 0
-888 -846 0
888 -887 846 0
888 -847 0
-889 888 0
-889 -847 0
889 -888 847 0
889 -665 0
-890 889 0
-890 -665 0
890 -889 665 0
890 -848 0
-891 890 0
-891 -848 0
891 -890 848 0
891 -849 0
-892 891 0
-892 -849 0
892 -891 849 0
892 -850 0
-893 892 0
-893 -850 0
893 -892 850 0
893 -851 0
-894 893 0
-894 -851 0
894 -893 851 0
894 -852 0
-895 894 0
-895 -852 0
895 -894 852 0
895 -853 0
-896 895 0
-896 -853 0
896 -895 853 0
896 -854 0
-897 896 0
-897 -854 0
897 -896 854 0
897 -855 0
-898 897 0
-898 -855 0
898 -897 855 0
898 -856 0
-899 898 0
-899 -856 0
899 -898 856 0
899 -857 0
-900 899 0
-900 -857 0
900 -899 857 0
900 -858 0
-901 900 0
-901 -858 0
901 -900 858 0
901 -678 0
-902 901 0
-902 -678 0
902 -901 678 0
902 -859 0
-903 902 0
-903 -859 0
903 -902 859 0
903 -860 0
-904 903 0
-904 -860 0
904 -903 860 0
904 -861 0
-905 904 0
-905 -861 0
905 -904 861 0
905 -862 0
-906 905 0
-906 -862 0
906 -905 862 0
906 -863 0
-907 906 0
-907 -863 0
907 -906 863 0
907 -864 0
-908 907 0
-908 -864 0
908 -907 864 0
908 -865 0
-909 908 0
-909 -865 0
909 -908 865 0
909 -866 0
-910 909 0
-910 -866 0
910 -909 866 0
910 -867 0
-911 910 0
-911 -867 0
911 -910 867 0
911 -868 0
-912 911 0
-912 -868 0
912 -911 868 0
912 -690 0
-913 912 0
-913 -690 0
913 -912 690 0
913 -869 0
-914 913 0
-914 -869 0
914 -913 869 0
914 -870 0
-915 914 0
-915 -870 0
915 -914 870 0
915 -871 0
-916 915 0
-916 -871 0
916 -915 871 0
916 -872 0
-917 916 0
-917 -872 0
917 -916 872 0
917 -873 0
-918 917 0
-918 -873 0
918 -917 873 0
918 -874 0
-919 918 0
-919 -874 0
919 -918 874 0
919 -875 0
-920 919 0
-920 -875 0
920 -919 875 0
920 -876 0
-921 920 0
-921 -876 0
921 -920 876 0
921 -877 0
-922 921 0
-922 -877 0
922 -921 877 0
922 -878 0
-923 922 0
-923 -878 0
923 -922 878 0
-924 3 0
-924 15 0
924 -3 -15 0
-925 4 0
-925 14 0
925 -4 -14 0
-926 5 0
-926 37 0
926 -5 -37 0
-927 6 0
-927 36 0
927 -6 -36 0
-928 7 0
-928 35 0
928 -7 -35 0
-929 8 0
-929 34 0
929 -8 -34 0
-930 9 0
-930 33 0
930 -9 -33 0
-931 10 0
-931 32 0
931 -10 -32 0
-932 11 0
-932 31 0
932 -11 -31 0
-933 12 0
-933 30 0
933 -12 -30 0
-934 13 0
-934 29 0
934 -13 -29 0
-935 11 0
-935 27 0
935 -11 -27 0
-936 10 0
-936 26 0
936 -10 -26 0
-937 9 0
-937 25 0
937 -9 -25 0
-938 8 0
-938 24 0
938 -8 -24 0
-939 7 0
-939 23 0
939 -7 -23 0
-940 6 0
-940 22 0
940 -6 -22 0
-941 5 0
-941 21 0
941 -5 -21 0
-942 4 0
-942 20 0
942 -4 -20 0
-943 3 0
-943 19 0
943 -3 -19 0
-944 2 0
-944 18 0
944 -2 -18 0
-945 14 0
-945 40 0
945 -14 -40 0
-946 15 0
-946 39 0
946 -15 -39 0
-947 18 0
-947 38 0
947 -18 -38 0
-948 19 0
-948 39 0
948 -19 -39 0
-949 20 0
-949 40 0
949 -20 -40 0
-950 21 0
-950 41 0
950 -21 -41 0
-951 22 0
-951 42 0
951 -22 -42 0
-952 23 0
-952 43 0
952 -23 -43 0
-953 24 0
-953 44 0
953 -24 -44 0
-954 25 0
-954 45 0
954 -25 -45 0
-955 26 0
-955 46 0
955 -26 -46 0
-956 27 0
-956 47 0
956 -27 -47 0
-957 29 0
-957 49 0
957 -29 -49 0
-958 30 0
-958 48 0
958 -30 -48 0
-959 31 0
-959 47 0
959 -31 -47 0
-960 32 0
-960 46 0
960 -32 -46 0
-961 33 0
-961 45 0
961 -33 -45 0
-962 34 0
-962 44 0
962 -34 -44 0
-963 35 0
-963 43 0
963 -35 -43 0
-964 36 0
-964 42 0
964 -36 -42 0
-965 37 0
-965 41 0
965 -37 -41 0
1 -768 0
-768 -924 0
-966 -768 0
-966 -924 0
966 768 924 0
966 -925 0
-967 966 0
-967 -925 0
967 -966 925 0
967 -926 0
-968 967 0
-968 -926 0
968 -967 926 0
968 -927 0
-969 968 0
-969 -927 0
969 -968 927 0
969 -928 0
-970 969 0
-970 -928 0
970 -969 928 0
970 -929 0
-971 970 0
-971 -929 0
971 -970 929 0
971 -930 0
-972 971 0
-972 -930 0
972 -971 930 0
972 -931 0
-973 972 0
-973 -931 0
973 -972 931 0
973 -932 0
-974 973 0
-974 -932 0
974 -973 932 0
974 -933 0
-975 974 0
-975 -933 0
975 -974 933 0
975 -934 0
-976 975 0
-976 -934 0
976 -975 934 0
976 -756 0
-977 976 0
-977 -756 0
977 -976 756 0
977 -935 0
-978 977 0
-978 -935 0
978 -977 935 0
978 -936 0
-979 978 0
-979 -936 0
979 -978 936 0
979 -937 0
-980 979 0
-980 -937 0
980 -979 937 0
980 -938 0
-981 980 0
-981 -938 0
981 -980 938 0
981 -939 0
-982 981 0
-982 -939 0
982 -981 939 0
982 -940 0
-983 982 0
-983 -940 0
983 -982 940 0
983 -941 0
-984 983 0
-984 -941 0
984 -983 941 0
984 -942 0
-985 984 0
-985 -942 0
985 -984 942 0
985 -943 0
-986 985 0
-986 -943 0
986 -985 943 0
986 -944 0
-987 986 0
-987 -944 0
987 -986 944 0
987 -945 0
-988 987 0
-988 -945 0
988 -987 945 0
988 -946 0
-989 988 0
-989 -946 0
989 -988 946 0
989 -770 0
-990 989 0
-990 -770 0
990 -989 770 0
990 -947 0
-991 990 0
-991 -947 0
991 -990 947 0
991 -948 0
-992 991 0
-992 -948 0
992 -991 948 0
992 -949 0
-993 992 0
-993 -949 0
993 -992 949 0
993 -950 0
-994 993 0
-994 -950 0
994 -993 950 0
994 -951 0
-995 994 0
-995 -951 0
995 -994 951 0
995 -952 0
-996 995 0
-996 -952 0
996 -995 952 0
996 -953 0
-997 996 0
-997 -953 0
997 -996 953 0
997 -954 0
-998 997 0
-998 -954 0
998 -997 954 0
998 -955 0
-999 998 0
-999 -955 0
999 -998 955 0
999 -956 0
-1000 999 0
-1000 -956 0
1000 -999 956 0
1000 -782 0
-1001 1000 0
-1001 -782 0
1001 -1000 782 0
1001 -957 0
-1002 1001 0
-1002 -957 0
1002 -1001 957 0
1002 -958 0
-1003 1002 0
-1003 -958 0
1003 -1002 958 0
1003 -959 0
-1004 1003 0
-1004 -959 0
1004 -1003 959 0
1004 -960 0
-1005 1004 0
-1005 -960 0
1005 -1004 960 0
1005 -961 0
-1006 1005 0
-1006 -961 0
1006 -1005 961 0
1006 -962 0
-1007 1006 0
-1007 -962 0
1007 -1006 962 0
1007 -963 0
-1008 1007 0
-1008 -963 0
1008 -1007 963 0
1008 -964 0
-1009 1008 0
-1009 -964 0
1009 -1008 964 0
1009 -965 0
-1010 1009 0
-1010 -965 0
1010 -1009 965 0
-1011 4 0
-1011 15 0
1011 -4 -15 0
-1012 5 0
-1012 14 0
1012 -5 -14 0
-1013 6 0
-1013 37 0
1013 -6 -37 0
-1014 7 0
-1014 36 0
1014 -7 -36 0
-1015 8 0
-1015 35 0
1015 -8 -35 0
-1016 9 0
-1016 34 0
1016 -9 -34 0
-1017 10 0
-1017 33 0
1017 -10 -33 0
-1018 11 0
-1018 32 0
1018 -11 -32 0
-1019 12 0
-1019 31 0
1019 -12 -31 0
-1020 13 0
-1020 30 0
1020 -13 -30 0
-1021 10 0
-1021 27 0
1021 -10 -27 0
-1022 9 0
-1022 26 0
1022 -9 -26 0
-1023 8 0
-1023 25 0
1023 -8 -25 0
-1024 7 0
-1024 24 0
1024 -7 -24 0
-1025 6 0
-1025 23 0
1025 -6 -23 0
-1026 5 0
-1026 22 0
1026 -5 -22 0
-1027 4 0
-1027 21 0
1027 -4 -21 0
-1028 3 0
-1028 20 0
1028 -3 -20 0
-1029 2 0
-1029 19 0
1029 -2 -19 0
-1030 14 0
-1030 41 0
1030 -14 -41 0
-1031 15 0
-1031 40 0
1031 -15 -40 0
-1032 19 0
-1032 38 0
1032 -19 -38 0
-1033 20 0
-1033 39 0
1033 -20 -39 0
-1034 21 0
-1034 40 0
1034 -21 -40 0
-1035 22 0
-1035 41 0
1035 -22 -41 0
-1036 23 0
-1036 42 0
1036 -23 -42 0
-1037 24 0
-1037 43 0
1037 -24 -43 0
-1038 25 0
-1038 44 0
1038 -25 -44 0
-1039 26 0
-1039 45 0
1039 -26 -45 0
-1040 27 0
-1040 46 0
1040 -27 -46 0
-1041 30 0
-1041 49 0
1041 -30 -49 0
-1042 31 0
-1042 48 0
1042 -31 -48 0
-1043 32 0
-1043 47 0
1043 -32 -47 0
-1044 33 0
-1044 46 0
1044 -33 -46 0
-1045 34 0
-1045 45 0
1045 -34 -45 0
-1046 35 0
-1046 44 0
1046 -35 -44 0
-1047 36 0
-1047 43 0
1047 -36 -43 0
-1048 37 0
-1048 42 0
1048 -37 -42 0
1 -857 0
-857 -676 0
-1049 -857 0
-1049 -676 0
1049 857 676 0
1049 -1011 0
-1050 1049 0
-1050 -1011 0
1050 -1049 1011 0
1050 -1012 0
-1051 1050 0
-1051 -1012 0
1051 -1050 1012 0
1051 -1013 0
-1052 1051 0
-1052 -1013 0
1052 -1051 1013 0
1052 -1014 0
-1053 1052 0
-1053 -1014 0
1053 -1052 1014 0
1053 -1015 0
-1054 1053 0
-1054 -1015 0
1054 -1053 1015 0
1054 -1016 0
-1055 1054 0
-1055 -1016 0
1055 -1054 1016 0
1055 -1017 0
-1056 1055 0
-1056 -1017 0
1056 -1055 1017 0
1056 -1018 0
-1057 1056 0
-1057 -1018 0
1057 -1056 1018 0
1057 -1019 0
-1058 1057 0
-1058 -1019 0
1058 -1057 1019 0
1058 -1020 0
-1059 1058 0
-1059 -1020 0
1059 -1058 1020 0
1059 -846 0
-1060 1059 0
-1060 -846 0
1060 -1059 846 0
1060 -664 0
-1061 1060 0
-1061 -664 0
1061 -1060 664 0
1061 -1021 0
-1062 1061 0
-1062 -1021 0
1062 -1061 1021 0
1062 -1022 0
-1063 1062 0
-1063 -1022 0
1063 -1062 1022 0
1063 -1023 0
-1064 1063 0
-1064 -1023 0
1064 -1063 1023 0
1064 -1024 0
-1065 1064 0
-1065 -1024 0
1065 -1064 1024 0
1065 -1025 0
-1066 1065 0
-1066 -1025 0
1066 -1065 1025 0
1066 -1026 0
-1067 1066 0
-1067 -1026 0
1067 -1066 1026 0
1067 -1027 0
-1068 1067 0
-1068 -1027 0
1068 -1067 1027 0
1068 -1028 0
-1069 1068 0
-1069 -1028 0
1069 -1068 1028 0
1069 -1029 0
-1070 1069 0
-1070 -1029 0
1070 -1069 1029 0
1070 -1030 0
-1071 1070 0
-1071 -1030 0
1071 -1070 1030 0
1071 -1031 0
-1072 1071 0
-1072 -1031 0
1072 -1071 1031 0
1072 -679 0
-1073 1072 0
-1073 -679 0
1073 -1072 679 0
1073 -859 0
-1074 1073 0
-1074 -859 0
1074 -1073 859 0
1074 -1032 0
-1075 1074 0
-1075 -1032 0
1075 -1074 1032 0
1075 -1033 0
-1076 1075 0
-1076 -1033 0
1076 -1075 1033 0
1076 -1034 0
-1077 1076 0
-1077 -1034 0
1077 -1076 1034 0
1077 -1035 0
-1078 1077 0
-1078 -1035 0
1078 -1077 1035 0
1078 -1036 0
-1079 1078 0
-1079 -1036 0
1079 -1078 1036 0
1079 -1037 0
-1080 1079 0
-1080 -1037 0
1080 -1079 1037 0
1080 -1038 0
-1081 1080 0
-1081 -1038 0
1081 -1080 1038 0
1081 -1039 0
-1082 1081 0
-1082 -1039 0
1082 -1081 1039 0
1082 -1040 0
-1083 1082 0
-1083 -1040 0
1083 -1082 1040 0
1083 -691 0
-1084 1083 0
-1084 -691 0
1084 -1083 691 0
1084 -870 0
-1085 1084 0
-1085 -870 0
1085 -1084 870 0
1085 -1041 0
-1086 1085 0
-1086 -1041 0
1086 -1085 1041 0
1086 -1042 0
-1087 1086 0
-1087 -1042 0
1087 -1086 1042 0
1087 -1043 0
-1088 1087 0
-1088 -1043 0
1088 -1087 1043 0
1088 -1044 0
-1089 1088 0
-1089 -1044 0
1089 -1088 1044 0
1089 -1045 0
-1090 1089 0
-1090 -1045 0
1090 -1089 1045 0
1090 -1046 0
-1091 1090 0
-1091 -1046 0
1091 -1090 1046 0
1091 -1047 0
-1092 1091 0
-1092 -1047 0
1092 -1091 1047 0
1092 -1048 0
-1093 1092 0
-1093 -1048 0
1093 -1092 1048 0
-1094 4 0
-1094 16 0
1094 -4 -16 0
-1095 5 0
-1095 15 0
1095 -5 -15 0
-1096 6 0
-1096 14 0
1096 -6 -14 0
-1097 7 0
-1097 37 0
1097 -7 -37 0
-1098 8 0
-1098 36 0
1098 -8 -36 0
-1099 9 0
-1099 35 0
1099 -9 -35 0
-1100 10 0
-1100 34 0
1100 -10 -34 0
-1101 11 0
-1101 33 0
1101 -11 -33 0
-1102 12 0
-1102 32 0
1102 -12 -32 0
-1103 13 0
-1103 31 0
1103 -13 -31 0
-1104 10 0
-1104 28 0
1104 -10 -28 0
-1105 9 0
-1105 27 0
1105 -9 -27 0
-1106 8 0
-1106 26 0
1106 -8 -26 0
-1107 7 0
-1107 25 0
1107 -7 -25 0
-1108 6 0
-1108 24 0
1108 -6 -24 0
-1109 5 0
-1109 23 0
1109 -5 -23 0
-1110 4 0
-1110 22 0
1110 -4 -22 0
-1111 3 0
-1111 21 0
1111 -3 -21 0
-1112 2 0
-1112 20 0
1112 -2 -20 0
-1113 14 0
-1113 42 0
1113 -14 -42 0
-1114 15 0
-1114 41 0
1114 -15 -41 0
-1115 16 0
-1115 40 0
1115 -16 -40 0
-1116 20 0
-1116 38 0
1116 -20 -38 0
-1117 21 0
-1117 39 0
1117 -21 -39 0
-1118 22 0
-1118 40 0
1118 -22 -40 0
-1119 23 0
-1119 41 0
1119 -23 -41 0
-1120 24 0
-1120 42 0
1120 -24 -42 0
-1121 25 0
-1121 43 0
1121 -25 -43 0
-1122 26 0
-1122 44 0
1122 -26 -44 0
-1123 27 0
-1123 45 0
1123 -27 -45 0
-1124 28 0
-1124 46 0
1124 -28 -46 0
-1125 31 0
-1125 49 0
1125 -31 -49 0
-1126 32 0
-1126 48 0
1126 -32 -48 0
-1127 33 0
-1127 47 0
1127 -33 -47 0
-1128 34 0
-1128 46 0
1128 -34 -46 0
-1129 35 0
-1129 45 0
1129 -35 -45 0
-1130 36 0
-1130 44 0
1130 -36 -44 0
-1131 37 0
-1131 43 0
1131 -37 -43 0
1 -944 0
-944 -767 0
-1132 -944 0
-1132 -767 0
1132 944 767 0
1132 -1094 0
-1133 1132 0
-1133 -1094 0
1133 -1132 1094 0
1133 -1095 0
-1134 1133 0
-1134 -1095 0
1134 -1133 1095 0
1134 -1096 0
-1135 1134 0
-1135 -1096 0
1135 -1134 1096 0
1135 -1097 0
-1136 1135 0
-1136 -1097 0
1136 -1135 1097 0
1136 -1098 0
-1137 1136 0
-1137 -1098 0
1137 -1136 1098 0
1137 -1099 0
-1138 1137 0
-1138 -1099 0
1138 -1137 1099 0
1138 -1100 0
-1139 1138 0
-1139 -1100 0
1139 -1138 1100 0
1139 -1101 0
-1140 1139 0
-1140 -1101 0
1140 -1139 1101 0
1140 -1102 0
-1141 1140 0
-1141 -1102 0
1141 -1140 1102 0
1141 -1103 0
-1142 1141 0
-1142 -1103 0
1142 -1141 1103 0
1142 -933 0
-1143 1142 0
-1143 -933 0
1143 -1142 933 0
1143 -755 0
-1144 1143 0
-1144 -755 0
1144 -1143 755 0
1144 -1104 0
-1145 1144 0
-1145 -1104 0
1145 -1144 1104 0
1145 -1105 0
-1146 1145 0
-1146 -1105 0
1146 -1145 1105 0
1146 -1106 0
-1147 1146 0
-1147 -1106 0
1147 -1146 1106 0
1147 -1107 0
-1148 1147 0
-1148 -1107 0
1148 -1147 1107 0
1148 -1108 0
-1149 1148 0
-1149 -1108 0
1149 -1148 1108 0
1149 -1109 0
-1150 1149 0
-1150 -1109 0
1150 -1149 1109 0
1150 -1110 0
-1151 1150 0
-1151 -1110 0
1151 -1150 1110 0
1151 -1111 0
-1152 1151 0
-1152 -1111 0
1152 -1151 1111 0
1152 -1112 0
-1153 1152 0
-1153 -1112 0
1153 -1152 1112 0
1153 -1113 0
-1154 1153 0
-1154 -1113 0
1154 -1153 1113 0
1154 -1114 0
-1155 1154 0
-1155 -1114 0
1155 -1154 1114 0
1155 -1115 0
-1156 1155 0
-1156 -1115 0
1156 -1155 1115 0
1156 -771 0
-1157 1156 0
-1157 -771 0
1157 -1156 771 0
1157 -947 0
-1158 1157 0
-1158 -947 0
1158 -1157 947 0
1158 -1116 0
-1159 1158 0
-1159 -1116 0
1159 -1158 1116 0
1159 -1117 0
-1160 1159 0
-1160 -1117 0
1160 -1159 1117 0
1160 -1118 0
-1161 1160 0
-1161 -1118 0
1161 -1160 1118 0
1161 -1119 0
-1162 1161 0
-1162 -1119 0
1162 -1161 1119 0
1162 -1120 0
-1163 1162 0
-1163 -1120 0
1163 -1162 1120 0
1163 -1121 0
-1164 1163 0
-1164 -1121 0
1164 -1163 1121 0
1164 -1122 0
-1165 1164 0
-1165 -1122 0
1165 -1164 1122 0
1165 -1123 0
-1166 1165 0
-1166 -1123 0
1166 -1165 1123 0
1166 -1124 0
-1167 1166 0
-1167 -1124 0
1167 -1166 1124 0
1167 -783 0
-1168 1167 0
-1168 -783 0
1168 -1167 783 0
1168 -958 0
-1169 1168 0
-1169 -958 0
1169 -1168 958 0
1169 -1125 0
-1170 1169 0
-1170 -1125 0
1170 -1169 1125 0
1170 -1126 0
-1171 1170 0
-1171 -1126 0
1171 -1170 1126 0
1171 -1127 0
-1172 1171 0
-1172 -1127 0
1172 -1171 1127 0
1172 -1128 0
-1173 1172 0
-1173 -1128 0
1173 -1172 1128 0
1173 -1129 0
-1174 1173 0
-1174 -1129 0
1174 -1173 1129 0
1174 -1130 0
-1175 1174 0
-1175 -1130 0
1175 -1174 1130 0
1175 -1131 0
-1176 1175 0
-1176 -1131 0
1176 -1175 1131 0
-1177 5 0
-1177 16 0
1177 -5 -16 0
-1178 6 0
-1178 15 0
1178 -6 -15 0
-1179 7 0
-1179 14 0
1179 -7 -14 0
-1180 8 0
-1180 37 0
1180 -8 -37 0
-1181 9 0
-1181 36 0
1181 -9 -36 0
-1182 10 0
-1182 35 0
1182 -10 -35 0
-1183 11 0
-1183 34 0
1183 -11 -34 0
-1184 12 0
-1184 33 0
1184 -12 -33 0
-1185 13 0
-1185 32 0
1185 -13 -32 0
-1186 9 0
-1186 28 0
1186 -9 -28 0
-1187 8 0
-1187 27 0
1187 -8 -27 0
-1188 7 0
-1188 26 0
1188 -7 -26 0
-1189 6 0
-1189 25 0
1189 -6 -25 0
-1190 5 0
-1190 24 0
1190 -5 -24 0
-1191 4 0
-1191 23 0
1191 -4 -23 0
-1192 3 0
-1192 22 0
1192 -3 -22 0
-1193 2 0
-1193 21 0
1193 -2 -21 0
-1194 14 0
-1194 43 0
1194 -14 -43 0
-1195 15 0
-1195 42 0
1195 -15 -42 0
-1196 16 0
-1196 41 0
1196 -16 -41 0
-1197 21 0
-1197 38 0
1197 -21 -38 0
-1198 22 0
-1198 39 0
1198 -22 -39 0
-1199 23 0
-1199 40 0
1199 -23 -40 0
-1200 24 0
-1200 41 0
1200 -24 -41 0
-1201 25 0
-1201 42 0
1201 -25 -42 0
-1202 26 0
-1202 43 0
1202 -26 -43 0
-1203 27 0
-1203 44 0
1203 -27 -44 0
-1204 28 0
-1204 45 0
1204 -28 -45 0
-1205 32 0
-1205 49 0
1205 -32 -49 0
-1206 33 0
-1206 48 0
1206 -33 -48 0
-1207 34 0
-1207 47 0
1207 -34 -47 0
-1208 35 0
-1208 46 0
1208 -35 -46 0
-1209 36 0
-1209 45 0
1209 -36 -45 0
-1210 37 0
-1210 44 0
1210 -37 -44 0
1 -1029 0
-1029 -856 0
-1211 -1029 0
-1211 -856 0
1211 1029 856 0
1211 -675 0
-1212 1211 0
-1212 -675 0
1212 -1211 675 0
1212 -1177 0
-1213 1212 0
-1213 -1177 0
1213 -1212 1177 0
1213 -1178 0
-1214 1213 0
-1214 -1178 0
1214 -1213 1178 0
1214 -1179 0
-1215 1214 0
-1215 -1179 0
1215 -1214 1179 0
1215 -1180 0
-1216 1215 0
-1216 -1180 0
1216 -1215 1180 0
1216 -1181 0
-1217 1216 0
-1217 -1181 0
1217 -1216 1181 0
1217 -1182 0
-1218 1217 0
-1218 -1182 0
1218 -1217 1182 0
1218 -1183 0
-1219 1218 0
-1219 -1183 0
1219 -1218 1183 0
1219 -1184 0
-1220 1219 0
-1220 -1184 0
1220 -1219 1184 0
1220 -1185 0
-1221 1220 0
-1221 -1185 0
1221 -1220 1185 0
1221 -1019 0
-1222 1221 0
-1222 -1019 0
1222 -1221 1019 0
1222 -845 0
-1223 1222 0
-1223 -845 0
1223 -1222 845 0
1223 -663 0
-1224 1223 0
-1224 -663 0
1224 -1223 663 0
1224 -1186 0
-1225 1224 0
-1225 -1186 0
1225 -1224 1186 0
1225 -1187 0
-1226 1225 0
-1226 -1187 0
1226 -1225 1187 0
1226 -1188 0
-1227 1226 0
-1227 -1188 0
1227 -1226 1188 0
1227 -1189 0
-1228 1227 0
-1228 -1189 0
1228 -1227 1189 0
1228 -1190 0
-1229 1228 0
-1229 -1190 0
1229 -1228 1190 0
1229 -1191 0
-1230 1229 0
-1230 -1191 0
1230 -1229 1191 0
1230 -1192 0
-1231 1230 0
-1231 -1192 0
1231 -1230 1192 0
1231 -1193 0
-1232 1231 0
-1232 -1193 0
1232 -1231 1193 0
1232 -1194 0
-1233 1232 0
-1233 -1194 0
1233 -1232 1194 0
1233 -1195 0
-1234 1233 0
-1234 -1195 0
1234 -1233 1195 0
1234 -1196 0
-1235 1234 0
-1235 -1196 0
1235 -1234 1196 0
1235 -680 0
-1236 1235 0
-1236 -680 0
1236 -1235 680 0
1236 -860 0
-1237 1236 0
-1237 -860 0
1237 -1236 860 0
1237 -1032 0
-1238 1237 0
-1238 -1032 0
1238 -1237 1032 0
1238 -1197 0
-1239 1238 0
-1239 -1197 0
1239 -1238 1197 0
1239 -1198 0
-1240 1239 0
-1240 -1198 0
1240 -1239 1198 0
1240 -1199 0
-1241 1240 0
-1241 -1199 0
1241 -1240 1199 0
1241 -1200 0
-1242 1241 0
-1242 -1200 0
1242 -1241 1200 0
1242 -1201 0
-1243 1242 0
-1243 -1201 0
1243 -1242 1201 0
1243 -1202 0
-1244 1243 0
-1244 -1202 0
1244 -1243 1202 0
1244 -1203 0
-1245 1244 0
-1245 -1203 0
1245 -1244 1203 0
1245 -1204 0
-1246 1245 0
-1246 -1204 0
1246 -1245 1204 0
1246 -692 0
-1247 1246 0
-1247 -692 0
1247 -1246 692 0
1247 -871 0
-1248 1247 0
-1248 -871 0
1248 -1247 871 0
1248 -1042 0
-1249 1248 0
-1249 -1042 0
1249 -1248 1042 0
1249 -1205 0
-1250 1249 0
-1250 -1205 0
1250 -1249 1205 0
1250 -1206 0
-1251 1250 0
-1251 -1206 0
1251 -1250 1206 0
1251 -1207 0
-1252 1251 0
-1252 -1207 0
1252 -1251 1207 0
1252 -1208 0
-1253 1252 0
-1253 -1208 0
1253 -1252 1208 0
1253 -1209 0
-1254 1253 0
-1254 -1209 0
1254 -1253 1209 0
1254 -1210 0
-1255 1254 0
-1255 -1210 0
1255 -1254 1210 0
-1256 5 0
-1256 17 0
1256 -5 -17 0
-1257 6 0
-1257 16 0
1257 -6 -16 0
-1258 7 0
-1258 15 0
1258 -7 -15 0
-1259 8 0
-1259 14 0
1259 -8 -14 0
-1260 9 0
-1260 37 0
1260 -9 -37 0
-1261 10 0
-1261 36 0
1261 -10 -36 0
-1262 11 0
-1262 35 0
1262 -11 -35 0
-1263 12 0
-1263 34 0
1263 -12 -34 0
-1264 13 0
-1264 33 0
1264 -13 -33 0
-1265 9 0
-1265 29 0
1265 -9 -29 0
-1266 8 0
-1266 28 0
1266 -8 -28 0
-1267 7 0
-1267 27 0
1267 -7 -27 0
-1268 6 0
-1268 26 0
1268 -6 -26 0
-1269 5 0
-1269 25 0
1269 -5 -25 0
-1270 4 0
-1270 24 0
1270 -4 -24 0
-1271 3 0
-1271 23 0
1271 -3 -23 0
-1272 2 0
-1272 22 0
1272 -2 -22 0
-1273 14 0
-1273 44 0
1273 -14 -44 0
-1274 15 0
-1274 43 0
1274 -15 -43 0
-1275 16 0
-1275 42 0
1275 -16 -42 0
-1276 17 0
-1276 41 0
1276 -17 -41 0
-1277 22 0
-1277 38 0
1277 -22 -38 0
-1278 23 0
-1278 39 0
1278 -23 -39 0
-1279 24 0
-1279 40 0
1279 -24 -40 0
-1280 25 0
-1280 41 0
1280 -25 -41 0
-1281 26 0
-1281 42 0
1281 -26 -42 0
-1282 27 0
-1282 43 0
1282 -27 -43 0
-1283 28 0
-1283 44 0
1283 -28 -44 0
-1284 29 0
-1284 45 0
1284 -29 -45 0
-1285 33 0
-1285 49 0
1285 -33 -49 0
-1286 34 0
-1286 48 0
1286 -34 -48 0
-1287 35 0
-1287 47 0
1287 -35 -47 0
-1288 36 0
-1288 46 0
1288 -36 -46 0
-1289 37 0
-1289 45 0
1289 -37 -45 0
1 -1112 0
-1112 -943 0
-1290 -1112 0
-1290 -943 0
1290 1112 943 0
1290 -766 0
-1291 1290 0
-1291 -766 0
1291 -1290 766 0
1291 -1256 0
-1292 1291 0
-1292 -1256 0
1292 -1291 1256 0
1292 -1257 0
-1293 1292 0
-1293 -1257 0
1293 -1292 1257 0
1293 -1258 0
-1294 1293 0
-1294 -1258 0
1294 -1293 1258 0
1294 -1259 0
-1295 1294 0
-1295 -1259 0
1295 -1294 1259 0
1295 -1260 0
-1296 1295 0
-1296 -1260 0
1296 -1295 1260 0
1296 -1261 0
-1297 1296 0
-1297 -1261 0
1297 -1296 1261 0
1297 -1262 0
-1298 1297 0
-1298 -1262 0
1298 -1297 1262 0
1298 -1263 0
-1299 1298 0
-1299 -1263 0
1299 -1298 1263 0
1299 -1264 0
-1300 1299 0
-1300 -1264 0
1300 -1299 1264 0
1300 -1102 0
-1301 1300 0
-1301 -1102 0
1301 -1300 1102 0
1301 -932 0
-1302 1301 0
-1302 -932 0
1302 -1301 932 0
1302 -754 0
-1303 1302 0
-1303 -754 0
1303 -1302 754 0
1303 -1265 0
-1304 1303 0
-1304 -1265 0
1304 -1303 1265 0
1304 -1266 0
-1305 1304 0
-1305 -1266 0
1305 -1304 1266 0
1305 -1267 0
-1306 1305 0
-1306 -1267 0
1306 -1305 1267 0
1306 -1268 0
-1307 1306 0
-1307 -1268 0
1307 -1306 1268 0
1307 -1269 0
-1308 1307 0
-1308 -1269 0
1308 -1307 1269 0
1308 -1270 0
-1309 1308 0
-1309 -1270 0
1309 -1308 1270 0
1309 -1271 0
-1310 1309 0
-1310 -1271 0
1310 -1309 1271 0
1310 -1272 0
-1311 1310 0
-1311 -1272 0
1311 -1310 1272 0
1311 -1273 0
-1312 1311 0
-1312 -1273 0
1312 -1311 1273 0
1312 -1274 0
-1313 1312 0
-1313 -1274 0
1313 -1312 1274 0
1313 -1275 0
-1314 1313 0
-1314 -1275 0
1314 -1313 1275 0
1314 -1276 0
-1315 1314 0
-1315 -1276 0
1315 -1314 1276 0
1315 -772 0
-1316 1315 0
-1316 -772 0
1316 -1315 772 0
1316 -948 0
-1317 1316 0
-1317 -948 0
1317 -1316 948 0
1317 -1116 0
-1318 1317 0
-1318 -1116 0
1318 -1317 1116 0
1318 -1277 0
-1319 1318 0
-1319 -1277 0
1319 -1318 1277 0
1319 -1278 0
-1320 1319 0
-1320 -1278 0
1320 -1319 1278 0
1320 -1279 0
-1321 1320 0
-1321 -1279 0
1321 -1320 1279 0
1321 -1280 0
-1322 1321 0
-1322 -1280 0
1322 -1321 1280 0
1322 -1281 0
-1323 1322 0
-1323 -1281 0
1323 -1322 1281 0
1323 -1282 0
-1324 1323 0
-1324 -1282 0
1324 -1323 1282 0
1324 -1283 0
-1325 1324 0
-1325 -1283 0
1325 -1324 1283 0
1325 -1284 0
-1326 1325 0
-1326 -1284 0
1326 -1325 1284 0
1326 -784 0
-1327 1326 0
-1327 -784 0
1327 -1326 784 0
1327 -959 0
-1328 1327 0
-1328 -959 0
1328 -1327 959 0
1328 -1126 0
-1329 1328 0
-1329 -1126 0
1329 -1328 1126 0
1329 -1285 0
-1330 1329 0
-1330 -1285 0
1330 -1329 1285 0
1330 -1286 0
-1331 1330 0
-1331 -1286 0
1331 -1330 1286 0
1331 -1287 0
-1332 1331 0
-1332 -1287 0
1332 -1331 1287 0
1332 -1288 0
-1333 1332 0
-1333 -1288 0
1333 -1332 1288 0
1333 -1289 0
-1334 1333 0
-1334 -1289 0
1334 -1333 1289 0
-1335 6 0
-1335 17 0
1335 -6 -17 0
-1336 7 0
-1336 16 0
1336 -7 -16 0
-1337 8 0
-1337 15 0
1337 -8 -15 0
-1338 9 0
-1338 14 0
1338 -9 -14 0
-1339 10 0
-1339 37 0
1339 -10 -37 0
-1340 11 0
-1340 36 0
1340 -11 -36 0
-1341 12 0
-1341 35 0
1341 -12 -35 0
-1342 13 0
-1342 34 0
1342 -13 -34 0
-1343 8 0
-1343 29 0
1343 -8 -29 0
-1344 7 0
-1344 28 0
1344 -7 -28 0
-1345 6 0
-1345 27 0
1345 -6 -27 0
-1346 5 0
-1346 26 0
1346 -5 -26 0
-1347 4 0
-1347 25 0
1347 -4 -25 0
-1348 3 0
-1348 24 0
1348 -3 -24 0
-1349 2 0
-1349 23 0
1349 -2 -23 0
-1350 14 0
-1350 45 0
1350 -14 -45 0
-1351 15 0
-1351 44 0
1351 -15 -44 0
-1352 16 0
-1352 43 0
1352 -16 -43 0
-1353 17 0
-1353 42 0
1353 -17 -42 0
-1354 23 0
-1354 38 0
1354 -23 -38 0
-1355 24 0
-1355 39 0
1355 -24 -39 0
-1356 25 0
-1356 40 0
1356 -25 -40 0
-1357 26 0
-1357 41 0
1357 -26 -41 0
-1358 27 0
-1358 42 0
1358 -27 -42 0
-1359 28 0
-1359 43 0
1359 -28 -43 0
-1360 29 0
-1360 44 0
1360 -29 -44 0
-1361 34 0
-1361 49 0
1361 -34 -49 0
-1362 35 0
-1362 48 0
1362 -35 -48 0
-1363 36 0
-1363 47 0
1363 -36 -47 0
-1364 37 0
-1364 46 0
1364 -37 -46 0
1 -1193 0
-1193 -1028 0
-1365 -1193 0
-1365 -1028 0
1365 1193 1028 0
1365 -855 0
-1366 1365 0
-1366 -855 0
1366 -1365 855 0
1366 -674 0
-1367 1366 0
-1367 -674 0
1367 -1366 674 0
1367 -1335 0
-1368 1367 0
-1368 -1335 0
1368 -1367 1335 0
1368 -1336 0
-1369 1368 0
-1369 -1336 0
1369 -1368 1336 0
1369 -1337 0
-1370 1369 0
-1370 -1337 0
1370 -1369 1337 0
1370 -1338 0
-1371 1370 0
-1371 -1338 0
1371 -1370 1338 0
1371 -1339 0
-1372 1371 0
-1372 -1339 0
1372 -1371 1339 0
1372 -1340 0
-1373 1372 0
-1373 -1340 0
1373 -1372 1340 0
1373 -1341 0
-1374 1373 0
-1374 -1341 0
1374 -1373 1341 0
1374 -1342 0
-1375 1374 0
-1375 -1342 0
1375 -1374 1342 0
1375 -1184 0
-1376 1375 0
-1376 -1184 0
1376 -1375 1184 0
1376 -1018 0
-1377 1376 0
-1377 -1018 0
1377 -1376 1018 0
1377 -844 0
-1378 1377 0
-1378 -844 0
1378 -1377 844 0
1378 -662 0
-1379 1378 0
-1379 -662 0
1379 -1378 662 0
1379 -1343 0
-1380 1379 0
-1380 -1343 0
1380 -1379 1343 0
1380 -1344 0
-1381 1380 0
-1381 -1344 0
1381 -1380 1344 0
1381 -1345 0
-1382 1381 0
-1382 -1345 0
1382 -1381 1345 0
1382 -1346 0
-1383 1382 0
-1383 -1346 0
1383 -1382 1346 0
1383 -1347 0
-1384 1383 0
-1384 -1347 0
1384 -1383 1347 0
1384 -1348 0
-1385 1384 0
-1385 -1348 0
1385 -1384 1348 0
1385 -1349 0
-1386 1385 0
-1386 -1349 0
1386 -1385 1349 0
1386 -1350 0
-1387 1386 0
-1387 -1350 0
1387 -1386 1350 0
1387 -1351 0
-1388 1387 0
-1388 -1351 0
1388 -1387 1351 0
1388 -1352 0
-1389 1388 0
-1389 -1352 0
1389 -1388 1352 0
1389 -1353 0
-1390 1389 0
-1390 -1353 0
1390 -1389 1353 0
1390 -681 0
-1391 1390 0
-1391 -681 0
1391 -1390 681 0
1391 -861 0
-1392 1391 0
-1392 -861 0
1392 -1391 861 0
1392 -1033 0
-1393 1392 0
-1393 -1033 0
1393 -1392 1033 0
1393 -1197 0
-1394 1393 0
-1394 -1197 0
1394 -1393 1197 0
1394 -1354 0
-1395 1394 0
-1395 -1354 0
1395 -1394 1354 0
1395 -1355 0
-1396 1395 0
-1396 -1355 0
1396 -1395 1355 0
1396 -1356 0
-1397 1396 0
-1397 -1356 0
1397 -1396 1356 0
1397 -1357 0
-1398 1397 0
-1398 -1357 0
1398 -1397 1357 0
1398 -1358 0
-1399 1398 0
-1399 -1358 0
1399 -1398 1358 0
1399 -1359 0
-1400 1399 0
-1400 -1359 0
1400 -1399 1359 0
1400 -1360 0
-1401 1400 0
-1401 -1360 0
1401 -1400 1360 0
1401 -693 0
-1402 1401 0
-1402 -693 0
1402 -1401 693 0
1402 -872 0
-1403 1402 0
-1403 -872 0
1403 -1402 872 0
1403 -1043 0
-1404 1403 0
-1404 -1043 0
1404 -1403 1043 0
1404 -1206 0
-1405 1404 0
-1405 -1206 0
1405 -1404 1206 0
1405 -1361 0
-1406 1405 0
-1406 -1361 0
1406 -1405 1361 0
1406 -1362 0
-1407 1406 0
-1407 -1362 0
1407 -1406 1362 0
1407 -1363 0
-1408 1407 0
-1408 -1363 0
1408 -1407 1363 0
1408 -1364 0
-1409 1408 0
-1409 -1364 0
1409 -1408 1364 0
-1410 6 0
-1410 18 0
1410 -6 -18 0
-1411 7 0
-1411 17 0
1411 -7 -17 0
-1412 8 0
-1412 16 0
1412 -8 -16 0
-1413 9 0
-1413 15 0
1413 -9 -15 0
-1414 10 0
-1414 14 0
1414 -10 -14 0
-1415 11 0
-1415 37 0
1415 -11 -37 0
-1416 12 0
-1416 36 0
1416 -12 -36 0
-1417 13 0
-1417 35 0
1417 -13 -35 0
-1418 8 0
-1418 30 0
1418 -8 -30 0
-1419 7 0
-1419 29 0
1419 -7 -29 0
-1420 6 0
-1420 28 0
1420 -6 -28 0
-1421 5 0
-1421 27 0
1421 -5 -27 0
-1422 4 0
-1422 26 0
1422 -4 -26 0
-1423 3 0
-1423 25 0
1423 -3 -25 0
-1424 2 0
-1424 24 0
1424 -2 -24 0
-1425 14 0
-1425 46 0
1425 -14 -46 0
-1426 15 0
-1426 45 0
1426 -15 -45 0
-1427 16 0
-1427 44 0
1427 -16 -44 0
-1428 17 0
-1428 43 0
1428 -17 -43 0
-1429 18 0
-1429 42 0
1429 -18 -42 0
-1430 24 0
-1430 38 0
1430 -24 -38 0
-1431 25 0
-1431 39 0
1431 -25 -39 0
-1432 26 0
-1432 40 0
1432 -26 -40 0
-1433 27 0
-1433 41 0
1433 -27 -41 0
-1434 28 0
-1434 42 0
1434 -28 -42 0
-1435 29 0
-1435 43 0
1435 -29 -43 0
-1436 30 0
-1436 44 0
1436 -30 -44 0
-1437 35 0
-1437 49 0
1437 -35 -49 0
-1438 36 0
-1438 48 0
1438 -36 -48 0
-1439 37 0
-1439 47 0
1439 -37 -47 0
1 -1272 0
-1272 -1111 0
-1440 -1272 0
-1440 -1111 0
1440 1272 1111 0
1440 -942 0
-1441 1440 0
-1441 -942 0
1441 -1440 942 0
1441 -765 0
-1442 1441 0
-1442 -765 0
1442 -1441 765 0
1442 -1410 0
-1443 1442 0
-1443 -1410 0
1443 -1442 1410 0
1443 -1411 0
-1444 1443 0
-1444 -1411 0
1444 -1443 1411 0
1444 -1412 0
-1445 1444 0
-1445 -1412 0
1445 -1444 1412 0
1445 -1413 0
-1446 1445 0
-1446 -1413 0
1446 -1445 1413 0
1446 -1414 0
-1447 1446 0
-1447 -1414 0
1447 -1446 1414 0
1447 -1415 0
-1448 1447 0
-1448 -1415 0
1448 -1447 1415 0
1448 -1416 0
-1449 1448 0
-1449 -1416 0
1449 -1448 1416 0
1449 -1417 0
-1450 1449 0
-1450 -1417 0
1450 -1449 1417 0
1450 -1263 0
-1451 1450 0
-1451 -1263 0
1451 -1450 1263 0
1451 -1101 0
-1452 1451 0
-1452 -1101 0
1452 -1451 1101 0
1452 -931 0
-1453 1452 0
-1453 -931 0
1453 -1452 931 0
1453 -753 0
-1454 1453 0
-1454 -753 0
1454 -1453 753 0
1454 -1418 0
-1455 1454 0
-1455 -1418 0
1455 -1454 1418 0
1455 -1419 0
-1456 1455 0
-1456 -1419 0
1456 -1455 1419 0
1456 -1420 0
-1457 1456 0
-1457 -1420 0
1457 -1456 1420 0
1457 -1421 0
-1458 1457 0
-1458 -1421 0
1458 -1457 1421 0
1458 -1422 0
-1459 1458 0
-1459 -1422 0
1459 -1458 1422 0
1459 -1423 0
-1460 1459 0
-1460 -1423 0
1460 -1459 1423 0
1460 -1424 0
-1461 1460 0
-1461 -1424 0
1461 -1460 1424 0
1461 -1425 0
-1462 1461 0
-1462 -1425 0
1462 -1461 1425 0
1462 -1426 0
-1463 1462 0
-1463 -1426 0
1463 -1462 1426 0
1463 -1427 0
-1464 1463 0
-1464 -1427 0
1464 -1463 1427 0
1464 -1428 0
-1465 1464 0
-1465 -1428 0
1465 -1464 1428 0
1465 -1429 0
-1466 1465 0
-1466 -1429 0
1466 -1465 1429 0
1466 -773 0
-1467 1466 0
-1467 -773 0
1467 -1466 773 0
1467 -949 0
-1468 1467 0
-1468 -949 0
1468 -1467 949 0
1468 -1117 0
-1469 1468 0
-1469 -1117 0
1469 -1468 1117 0
1469 -1277 0
-1470 1469 0
-1470 -1277 0
1470 -1469 1277 0
1470 -1430 0
-1471 1470 0
-1471 -1430 0
1471 -1470 1430 0
1471 -1431 0
-1472 1471 0
-1472 -1431 0
1472 -1471 1431 0
1472 -1432 0
-1473 1472 0
-1473 -1432 0
1473 -1472 1432 0
1473 -1433 0
-1474 1473 0
-1474 -1433 0
1474 -1473 1433 0
1474 -1434 0
-1475 1474 0
-1475 -1434 0
1475 -1474 1434 0
1475 -1435 0
-1476 1475 0
-1476 -1435 0
1476 -1475 1435 0
1476 -1436 0
-1477 1476 0
-1477 -1436 0
1477 -1476 1436 0
1477 -785 0
-1478 1477 0
-1478 -785 0
1478 -1477 785 0
1478 -960 0
-1479 1478 0
-1479 -960 0
1479 -1478 960 0
1479 -1127 0
-1480 1479 0
-1480 -1127 0
1480 -1479 1127 0
1480 -1286 0
-1481 1480 0
-1481 -1286 0
1481 -1480 1286 0
1481 -1437 0
-1482 1481 0
-1482 -1437 0
1482 -1481 1437 0
1482 -1438 0
-1483 1482 0
-1483 -1438 0
1483 -1482 1438 0
1483 -1439 0
-1484 1483 0
-1484 -1439 0
1484 -1483 1439 0
-1485 7 0
-1485 18 0
1485 -7 -18 0
-1486 8 0
-1486 17 0
1486 -8 -17 0
-1487 9 0
-1487 16 0
1487 -9 -16 0
-1488 10 0
-1488 15 0
1488 -10 -15 0
-1489 11 0
-1489 14 0
1489 -11 -14 0
-1490 12 0
-1490 37 0
1490 -12 -37 0
-1491 13 0
-1491 36 0
1491 -13 -36 0
-1492 7 0
-1492 30 0
1492 -7 -30 0
-1493 6 0
-1493 29 0
1493 -6 -29 0
-1494 5 0
-1494 28 0
1494 -5 -28 0
-1495 4 0
-1495 27 0
1495 -4 -27 0
-1496 3 0
-1496 26 0
1496 -3 -26 0
-1497 2 0
-1497 25 0
1497 -2 -25 0
-1498 14 0
-1498 47 0
1498 -14 -47 0
-1499 15 0
-1499 46 0
1499 -15 -46 0
-1500 16 0
-1500 45 0
1500 -16 -45 0
-1501 17 0
-1501 44 0
1501 -17 -44 0
-1502 18 0
-1502 43 0
1502 -18 -43 0
-1503 25 0
-1503 38 0
1503 -25 -38 0
-1504 26 0
-1504 39 0
1504 -26 -39 0
-1505 27 0
-1505 40 0
1505 -27 -40 0
-1506 28 0
-1506 41 0
1506 -28 -41 0
-1507 29 0
-1507 42 0
1507 -29 -42 0
-1508 30 0
-1508 43 0
1508 -30 -43 0
-1509 36 0
-1509 49 0
1509 -36 -49 0
-1510 37 0
-1510 48 0
1510 -37 -48 0
1 -1349 0
-1349 -1192 0
-1511 -1349 0
-1511 -1192 0
1511 1349 1192 0
1511 -1027 0
-1512 1511 0
-1512 -1027 0
1512 -1511 1027 0
1512 -854 0
-1513 1512 0
-1513 -854 0
1513 -1512 854 0
1513 -673 0
-1514 1513 0
-1514 -673 0
1514 -1513 673 0
1514 -1485 0
-1515 1514 0
-1515 -1485 0
1515 -1514 1485 0
1515 -1486 0
-1516 1515 0
-1516 -1486 0
1516 -1515 1486 0
1516 -1487 0
-1517 1516 0
-1517 -1487 0
1517 -1516 1487 0
1517 -1488 0
-1518 1517 0
-1518 -1488 0
1518 -1517 1488 0
1518 -1489 0
-1519 1518 0
-1519 -1489 0
1519 -1518 1489 0
1519 -1490 0
-1520 1519 0
-1520 -1490 0
1520 -1519 1490 0
1520 -1491 0
-1521 1520 0
-1521 -1491 0
1521 -1520 1491 0
1521 -1341 0
-1522 1521 0
-1522 -1341 0
1522 -1521 1341 0
1522 -1183 0
-1523 1522 0
-1523 -1183 0
1523 -1522 1183 0
1523 -1017 0
-1524 1523 0
-1524 -1017 0
1524 -1523 1017 0
1524 -843 0
-1525 1524 0
-1525 -843 0
1525 -1524 843 0
1525 -661 0
-1526 1525 0
-1526 -661 0
1526 -1525 661 0
1526 -1492 0
-1527 1526 0
-1527 -1492 0
1527 -1526 1492 0
1527 -1493 0
-1528 1527 0
-1528 -1493 0
1528 -1527 1493 0
1528 -1494 0
-1529 1528 0
-1529 -1494 0
1529 -1528 1494 0
1529 -1495 0
-1530 1529 0
-1530 -1495 0
1530 -1529 1495 0
1530 -1496 0
-1531 1530 0
-1531 -1496 0
1531 -1530 1496 0
1531 -1497 0
-1532 1531 0
-1532 -1497 0
1532 -1531 1497 0
1532 -1498 0
-1533 1532 0
-1533 -1498 0
1533 -1532 1498 0
1533 -1499 0
-1534 1533 0
-1534 -1499 0
1534 -1533 1499 0
1534 -1500 0
-1535 1534 0
-1535 -1500 0
1535 -1534 1500 0
1535 -1501 0
-1536 1535 0
-1536 -1501 0
1536 -1535 1501 0
1536 -1502 0
-1537 1536 0
-1537 -1502 0
1537 -1536 1502 0
1537 -682 0
-1538 1537 0
-1538 -682 0
1538 -1537 682 0
1538 -862 0
-1539 1538 0
-1539 -862 0
1539 -1538 862 0
1539 -1034 0
-1540 1539 0
-1540 -1034 0
1540 -1539 1034 0
1540 -1198 0
-1541 1540 0
-1541 -1198 0
1541 -1540 1198 0
1541 -1354 0
-1542 1541 0
-1542 -1354 0
1542 -1541 1354 0
1542 -1503 0
-1543 1542 0
-1543 -1503 0
1543 -1542 1503 0
1543 -1504 0
-1544 1543 0
-1544 -1504 0
1544 -1543 1504 0
1544 -1505 0
-1545 1544 0
-1545 -1505 0
1545 -1544 1505 0
1545 -1506 0
-1546 1545 0
-1546 -1506 0
1546 -1545 1506 0
1546 -1507 0
-1547 1546 0
-1547 -1507 0
1547 -1546 1507 0
1547 -1508 0
-1548 1547 0
-1548 -1508 0
1548 -1547 1508 0
1548 -694 0
-1549 1548 0
-1549 -694 0
1549 -1548 694 0
1549 -873 0
-1550 1549 0
-1550 -873 0
1550 -1549 873 0
1550 -1044 0
-1551 1550 0
-1551 -1044 0
1551 -1550 1044 0
1551 -1207 0
-1552 1551 0
-1552 -1207 0
1552 -1551 1207 0
1552 -1362 0
-1553 1552 0
-1553 -1362 0
1553 -1552 1362 0
1553 -1509 0
-1554 1553 0
-1554 -1509 0
1554 -1553 1509 0
1554 -1510 0
-1555 1554 0
-1555 -1510 0
1555 -1554 1510 0
-1556 7 0
-1556 19 0
1556 -7 -19 0
-1557 8 0
-1557 18 0
1557 -8 -18 0
-1558 9 0
-1558 17 0
1558 -9 -17 0
-1559 10 0
-1559 16 0
1559 -10 -16 0
-1560 11 0
-1560 15 0
1560 -11 -15 0
-1561 12 0
-1561 14 0
1561 -12 -14 0
-1562 13 0
-1562 37 0
1562 -13 -37 0
-1563 7 0
-1563 31 0
1563 -7 -31 0
-1564 6 0
-1564 30 0
1564 -6 -30 0
-1565 5 0
-1565 29 0
1565 -5 -29 0
-1566 4 0
-1566 28 0
1566 -4 -28 0
-1567 3 0
-1567 27 0
1567 -3 -27 0
-1568 2 0
-1568 26 0
1568 -2 -26 0
-1569 14 0
-1569 48 0
1569 -14 -48 0
-1570 15 0
-1570 47 0
1570 -15 -47 0
-1571 16 0
-1571 46 0
1571 -16 -46 0
-1572 17 0
-1572 45 0
1572 -17 -45 0
-1573 18 0
-1573 44 0
1573 -18 -44 0
-1574 19 0
-1574 43 0
1574 -19 -43 0
-1575 26 0
-1575 38 0
1575 -26 -38 0
-1576 27 0
-1576 39 0
1576 -27 -39 0
-1577 28 0
-1577 40 0
1577 -28 -40 0
-1578 29 0
-1578 41 0
1578 -29 -41 0
-1579 30 0
-1579 42 0
1579 -30 -42 0
-1580 31 0
-1580 43 0
1580 -31 -43 0
-1581 37 0
-1581 49 0
1581 -37 -49 0
1 -1424 0
-1424 -1271 0
-1582 -1424 0
-1582 -1271 0
1582 1424 1271 0
1582 -1110 0
-1583 1582 0
-1583 -1110 0
1583 -1582 1110 0
1583 -941 0
-1584 1583 0
-1584 -941 0
1584 -1583 941 0
1584 -764 0
-1585 1584 0
-1585 -764 0
1585 -1584 764 0
1585 -1556 0
-1586 1585 0
-1586 -1556 0
1586 -1585 1556 0
1586 -1557 0
-1587 1586 0
-1587 -1557 0
1587 -1586 1557 0
1587 -1558 0
-1588 1587 0
-1588 -1558 0
1588 -1587 1558 0
1588 -1559 0
-1589 1588 0
-1589 -1559 0
1589 -1588 1559 0
1589 -1560 0
-1590 1589 0
-1590 -1560 0
1590 -1589 1560 0
1590 -1561 0
-1591 1590 0
-1591 -1561 0
1591 -1590 1561 0
1591 -1562 0
-1592 1591 0
-1592 -1562 0
1592 -1591 1562 0
1592 -1416 0
-1593 1592 0
-1593 -1416 0
1593 -1592 1416 0
1593 -1262 0
-1594 1593 0
-1594 -1262 0
1594 -1593 1262 0
1594 -1100 0
-1595 1594 0
-1595 -1100 0
1595 -1594 1100 0
1595 -930 0
-1596 1595 0
-1596 -930 0
1596 -1595 930 0
1596 -752 0
-1597 1596 0
-1597 -752 0
1597 -1596 752 0
1597 -1563 0
-1598 1597 0
-1598 -1563 0
1598 -1597 1563 0
1598 -1564 0
-1599 1598 0
-1599 -1564 0
1599 -1598 1564 0
1599 -1565 0
-1600 1599 0
-1600 -1565 0
1600 -1599 1565 0
1600 -1566 0
-1601 1600 0
-1601 -1566 0
1601 -1600 1566 0
1601 -1567 0
-1602 1601 0
-1602 -1567 0
1602 -1601 1567 0
1602 -1568 0
-1603 1602 0
-1603 -1568 0
1603 -1602 1568 0
1603 -1569 0
-1604 1603 0
-1604 -1569 0
1604 -1603 1569 0
1604 -1570 0
-1605 1604 0
-1605 -1570 0
1605 -1604 1570 0
1605 -1571 0
-1606 1605 0
-1606 -1571 0
1606 -1605 1571 0
1606 -1572 0
-1607 1606 0
-1607 -1572 0
1607 -1606 1572 0
1607 -1573 0
-1608 1607 0
-1608 -1573 0
1608 -1607 1573 0
1608 -1574 0
-1609 1608 0
-1609 -1574 0
1609 -1608 1574 0
1609 -774 0
-1610 1609 0
-1610 -774 0
1610 -1609 774 0
1610 -950 0
-1611 1610 0
-1611 -950 0
1611 -1610 950 0
1611 -1118 0
-1612 1611 0
-1612 -1118 0
1612 -1611 1118 0
1612 -1278 0
-1613 1612 0
-1613 -1278 0
1613 -1612 1278 0
1613 -1430 0
-1614 1613 0
-1614 -1430 0
1614 -1613 1430 0
1614 -1575 0
-1615 1614 0
-1615 -1575 0
1615 -1614 1575 0
1615 -1576 0
-1616 1615 0
-1616 -1576 0
1616 -1615 1576 0
1616 -1577 0
-1617 1616 0
-1617 -1577 0
1617 -1616 1577 0
1617 -1578 0
-1618 1617 0
-1618 -1578 0
1618 -1617 1578 0
1618 -1579 0
-1619 1618 0
-1619 -1579 0
1619 -1618 1579 0
1619 -1580 0
-1620 1619 0
-1620 -1580 0
1620 -1619 1580 0
1620 -786 0
-1621 1620 0
-1621 -786 0
1621 -1620 786 0
1621 -961 0
-1622 1621 0
-1622 -961 0
1622 -1621 961 0
1622 -1128 0
-1623 1622 0
-1623 -1128 0
1623 -1622 1128 0
1623 -1287 0
-1624 1623 0
-1624 -1287 0
1624 -1623 1287 0
1624 -1438 0
-1625 1624 0
-1625 -1438 0
1625 -1624 1438 0
1625 -1581 0
-1626 1625 0
-1626 -1581 0
1626 -1625 1581 0
-1627 8 0
-1627 19 0
1627 -8 -19 0
-1628 9 0
-1628 18 0
1628 -9 -18 0
-1629 10 0
-1629 17 0
1629 -10 -17 0
-1630 11 0
-1630 16 0
1630 -11 -16 0
-1631 12 0
-1631 15 0
1631 -12 -15 0
-1632 13 0
-1632 14 0
1632 -13 -14 0
-1633 6 0
-1633 31 0
1633 -6 -31 0
-1634 5 0
-1634 30 0
1634 -5 -30 0
-1635 4 0
-1635 29 0
1635 -4 -29 0
-1636 3 0
-1636 28 0
1636 -3 -28 0
-1637 2 0
-1637 27 0
1637 -2 -27 0
-1638 14 0
-1638 49 0
1638 -14 -49 0
-1639 15 0
-1639 48 0
1639 -15 -48 0
-1640 16 0
-1640 47 0
1640 -16 -47 0
-1641 17 0
-1641 46 0
1641 -17 -46 0
-1642 18 0
-1642 45 0
1642 -18 -45 0
-1643 19 0
-1643 44 0
1643 -19 -44 0
-1644 27 0
-1644 38 0
1644 -27 -38 0
-1645 28 0
-1645 39 0
1645 -28 -39 0
-1646 29 0
-1646 40 0
1646 -29 -40 0
-1647 30 0
-1647 41 0
1647 -30 -41 0
-1648 31 0
-1648 42 0
1648 -31 -42 0
1 -1497 0
-1497 -1348 0
-1649 -1497 0
-1649 -1348 0
1649 1497 1348 0
1649 -1191 0
-1650 1649 0
-1650 -1191 0
1650 -1649 1191 0
1650 -1026 0
-1651 1650 0
-1651 -1026 0
1651 -1650 1026 0
1651 -853 0
-1652 1651 0
-1652 -853 0
1652 -1651 853 0
1652 -672 0
-1653 1652 0
-1653 -672 0
1653 -1652 672 0
1653 -1627 0
-1654 1653 0
-1654 -1627 0
1654 -1653 1627 0
1654 -1628 0
-1655 1654 0
-1655 -1628 0
1655 -1654 1628 0
1655 -1629 0
-1656 1655 0
-1656 -1629 0
1656 -1655 1629 0
1656 -1630 0
-1657 1656 0
-1657 -1630 0
1657 -1656 1630 0
1657 -1631 0
-1658 1657 0
-1658 -1631 0
1658 -1657 1631 0
1658 -1632 0
-1659 1658 0
-1659 -1632 0
1659 -1658 1632 0
1659 -1490 0
-1660 1659 0
-1660 -1490 0
1660 -1659 1490 0
1660 -1340 0
-1661 1660 0
-1661 -1340 0
1661 -1660 1340 0
1661 -1182 0
-1662 1661 0
-1662 -1182 0
1662 -1661 1182 0
1662 -1016 0
-1663 1662 0
-1663 -1016 0
1663 -1662 1016 0
1663 -842 0
-1664 1663 0
-1664 -842 0
1664 -1663 842 0
1664 -660 0
-1665 1664 0
-1665 -660 0
1665 -1664 660 0
1665 -1633 0
-1666 1665 0
-1666 -1633 0
1666 -1665 1633 0
1666 -1634 0
-1667 1666 0
-1667 -1634 0
1667 -1666 1634 0
1667 -1635 0
-1668 1667 0
-1668 -1635 0
1668 -1667 1635 0
1668 -1636 0
-1669 1668 0
-1669 -1636 0
1669 -1668 1636 0
1669 -1637 0
-1670 1669 0
-1670 -1637 0
1670 -1669 1637 0
1670 -1638 0
-1671 1670 0
-1671 -1638 0
1671 -1670 1638 0
1671 -1639 0
-1672 1671 0
-1672 -1639 0
1672 -1671 1639 0
1672 -1640 0
-1673 1672 0
-1673 -1640 0
1673 -1672 1640 0
1673 -1641 0
-1674 1673 0
-1674 -1641 0
1674 -1673 1641 0
1674 -1642 0
-1675 1674 0
-1675 -1642 0
1675 -1674 1642 0
1675 -1643 0
-1676 1675 0
-1676 -1643 0
1676 -1675 1643 0
1676 -683 0
-1677 1676 0
-1677 -683 0
1677 -1676 683 0
1677 -863 0
-1678 1677 0
-1678 -863 0
1678 -1677 863 0
1678 -1035 0
-1679 1678 0
-1679 -1035 0
1679 -1678 1035 0
1679 -1199 0
-1680 1679 0
-1680 -1199 0
1680 -1679 1199 0
1680 -1355 0
-1681 1680 0
-1681 -1355 0
1681 -1680 1355 0
1681 -1503 0
-1682 1681 0
-1682 -1503 0
1682 -1681 1503 0
1682 -1644 0
-1683 1682 0
-1683 -1644 0
1683 -1682 1644 0
1683 -1645 0
-1684 1683 0
-1684 -1645 0
1684 -1683 1645 0
1684 -1646 0
-1685 1684 0
-1685 -1646 0
1685 -1684 1646 0
1685 -1647 0
-1686 1685 0
-1686 -1647 0
1686 -1685 1647 0
1686 -1648 0
-1687 1686 0
-1687 -1648 0
1687 -1686 1648 0
1687 -695 0
-1688 1687 0
-1688 -695 0
1688 -1687 695 0
1688 -874 0
-1689 1688 0
-1689 -874 0
1689 -1688 874 0
1689 -1045 0
-1690 1689 0
-1690 -1045 0
1690 -1689 1045 0
1690 -1208 0
-1691 1690 0
-1691 -1208 0
1691 -1690 1208 0
1691 -1363 0
-1692 1691 0
-1692 -1363 0
1692 -1691 1363 0
1692 -1510 0
-1693 1692 0
-1693 -1510 0
1693 -1692 1510 0
-1694 8 0
-1694 20 0
1694 -8 -20 0
-1695 9 0
-1695 19 0
1695 -9 -19 0
-1696 10 0
-1696 18 0
1696 -10 -18 0
-1697 11 0
-1697 17 0
1697 -11 -17 0
-1698 12 0
-1698 16 0
1698 -12 -16 0
-1699 13 0
-1699 15 0
1699 -13 -15 0
-1700 6 0
-1700 32 0
1700 -6 -32 0
-1701 5 0
-1701 31 0
1701 -5 -31 0
-1702 4 0
-1702 30 0
1702 -4 -30 0
-1703 3 0
-1703 29 0
1703 -3 -29 0
-1704 2 0
-1704 28 0
1704 -2 -28 0
-1705 15 0
-1705 49 0
1705 -15 -49 0
-1706 16 0
-1706 48 0
1706 -16 -48 0
-1707 17 0
-1707 47 0
1707 -17 -47 0
-1708 18 0
-1708 46 0
1708 -18 -46 0
-1709 19 0
-1709 45 0
1709 -19 -45 0
-1710 20 0
-1710 44 0
1710 -20 -44 0
-1711 28 0
-1711 38 0
1711 -28 -38 0
-1712 29 0
-1712 39 0
1712 -29 -39 0
-1713 30 0
-1713 40 0
1713 -30 -40 0
-1714 31 0
-1714 41 0
1714 -31 -41 0
-1715 32 0
-1715 42 0
1715 -32 -42 0
1 -1568 0
-1568 -1423 0
-1716 -1568 0
-1716 -1423 0
1716 1568 1423 0
1716 -1270 0
-1717 1716 0
-1717 -1270 0
1717 -1716 1270 0
1717 -1109 0
-1718 1717 0
-1718 -1109 0
1718 -1717 1109 0
1718 -940 0
-1719 1718 0
-1719 -940 0
1719 -1718 940 0
1719 -763 0
-1720 1719 0
-1720 -763 0
1720 -1719 763 0
1720 -1694 0
-1721 1720 0
-1721 -1694 0
1721 -1720 1694 0
1721 -1695 0
-1722 1721 0
-1722 -1695 0
1722 -1721 1695 0
1722 -1696 0
-1723 1722 0
-1723 -1696 0
1723 -1722 1696 0
1723 -1697 0
-1724 1723 0
-1724 -1697 0
1724 -1723 1697 0
1724 -1698 0
-1725 1724 0
-1725 -1698 0
1725 -1724 1698 0
1725 -1699 0
-1726 1725 0
-1726 -1699 0
1726 -1725 1699 0
1726 -1561 0
-1727 1726 0
-1727 -1561 0
1727 -1726 1561 0
1727 -1415 0
-1728 1727 0
-1728 -1415 0
1728 -1727 1415 0
1728 -1261 0
-1729 1728 0
-1729 -1261 0
1729 -1728 1261 0
1729 -1099 0
-1730 1729 0
-1730 -1099 0
1730 -1729 1099 0
1730 -929 0
-1731 1730 0
-1731 -929 0
1731 -1730 929 0
1731 -751 0
-1732 1731 0
-1732 -751 0
1732 -1731 751 0
1732 -1700 0
-1733 1732 0
-1733 -1700 0
1733 -1732 1700 0
1733 -1701 0
-1734 1733 0
-1734 -1701 0
1734 -1733 1701 0
1734 -1702 0
-1735 1734 0
-1735 -1702 0
1735 -1734 1702 0
1735 -1703 0
-1736 1735 0
-1736 -1703 0
1736 -1735 1703 0
1736 -1704 0
-1737 1736 0
-1737 -1704 0
1737 -1736 1704 0
1737 -1569 0
-1738 1737 0
-1738 -1569 0
1738 -1737 1569 0
1738 -1705 0
-1739 1738 0
-1739 -1705 0
1739 -1738 1705 0
1739 -1706 0
-1740 1739 0
-1740 -1706 0
1740 -1739 1706 0
1740 -1707 0
-1741 1740 0
-1741 -1707 0
1741 -1740 1707 0
1741 -1708 0
-1742 1741 0
-1742 -1708 0
1742 -1741 1708 0
1742 -1709 0
-1743 1742 0
-1743 -1709 0
1743 -1742 1709 0
1743 -1710 0
-1744 1743 0
-1744 -1710 0
1744 -1743 1710 0
1744 -775 0
-1745 1744 0
-1745 -775 0
1745 -1744 775 0
1745 -951 0
-1746 1745 0
-1746 -951 0
1746 -1745 951 0
1746 -1119 0
-1747 1746 0
-1747 -1119 0
1747 -1746 1119 0
1747 -1279 0
-1748 1747 0
-1748 -1279 0
1748 -1747 1279 0
1748 -1431 0
-1749 1748 0
-1749 -1431 0
1749 -1748 1431 0
1749 -1575 0
-1750 1749 0
-1750 -1575 0
1750 -1749 1575 0
1750 -1711 0
-1751 1750 0
-1751 -1711 0
1751 -1750 1711 0
1751 -1712 0
-1752 1751 0
-1752 -1712 0
1752 -1751 1712 0
1752 -1713 0
-1753 1752 0
-1753 -1713 0
1753 -1752 1713 0
1753 -1714 0
-1754 1753 0
-1754 -1714 0
1754 -1753 1714 0
1754 -1715 0
-1755 1754 0
-1755 -1715 0
1755 -1754 1715 0
1755 -787 0
-1756 1755 0
-1756 -787 0
1756 -1755 787 0
1756 -962 0
-1757 1756 0
-1757 -962 0
1757 -1756 962 0
1757 -1129 0
-1758 1757 0
-1758 -1129 0
1758 -1757 1129 0
1758 -1288 0
-1759 1758 0
-1759 -1288 0
1759 -1758 1288 0
1759 -1439 0
-1760 1759 0
-1760 -1439 0
1760 -1759 1439 0
-1761 9 0
-1761 20 0
1761 -9 -20 0
-1762 10 0
-1762 19 0
1762 -10 -19 0
-1763 11 0
-1763 18 0
1763 -11 -18 0
-1764 12 0
-1764 17 0
1764 -12 -17 0
-1765 13 0
-1765 16 0
1765 -13 -16 0
-1766 5 0
-1766 32 0
1766 -5 -32 0
-1767 4 0
-1767 31 0
1767 -4 -31 0
-1768 3 0
-1768 30 0
1768 -3 -30 0
-1769 2 0
-1769 29 0
1769 -2 -29 0
-1770 16 0
-1770 49 0
1770 -16 -49 0
-1771 17 0
-1771 48 0
1771 -17 -48 0
-1772 18 0
-1772 47 0
1772 -18 -47 0
-1773 19 0
-1773 46 0
1773 -19 -46 0
-1774 20 0
-1774 45 0
1774 -20 -45 0
-1775 29 0
-1775 38 0
1775 -29 -38 0
-1776 30 0
-1776 39 0
1776 -30 -39 0
-1777 31 0
-1777 40 0
1777 -31 -40 0
-1778 32 0
-1778 41 0
1778 -32 -41 0
1 -1637 0
-1637 -1496 0
-1779 -1637 0
-1779 -1496 0
1779 1637 1496 0
1779 -1347 0
-1780 1779 0
-1780 -1347 0
1780 -1779 1347 0
1780 -1190 0
-1781 1780 0
-1781 -1190 0
1781 -1780 1190 0
1781 -1025 0
-1782 1781 0
-1782 -1025 0
1782 -1781 1025 0
1782 -852 0
-1783 1782 0
-1783 -852 0
1783 -1782 852 0
1783 -671 0
-1784 1783 0
-1784 -671 0
1784 -1783 671 0
1784 -1761 0
-1785 1784 0
-1785 -1761 0
1785 -1784 1761 0
1785 -1762 0
-1786 1785 0
-1786 -1762 0
1786 -1785 1762 0
1786 -1763 0
-1787 1786 0
-1787 -1763 0
1787 -1786 1763 0
1787 -1764 0
-1788 1787 0
-1788 -1764 0
1788 -1787 1764 0
1788 -1765 0
-1789 1788 0
-1789 -1765 0
1789 -1788 1765 0
1789 -1631 0
-1790 1789 0
-1790 -1631 0
1790 -1789 1631 0
1790 -1489 0
-1791 1790 0
-1791 -1489 0
1791 -1790 1489 0
1791 -1339 0
-1792 1791 0
-1792 -1339 0
1792 -1791 1339 0
1792 -1181 0
-1793 1792 0
-1793 -1181 0
1793 -1792 1181 0
1793 -1015 0
-1794 1793 0
-1794 -1015 0
1794 -1793 1015 0
1794 -841 0
-1795 1794 0
-1795 -841 0
1795 -1794 841 0
1795 -659 0
-1796 1795 0
-1796 -659 0
1796 -1795 659 0
1796 -1766 0
-1797 1796 0
-1797 -1766 0
1797 -1796 1766 0
1797 -1767 0
-1798 1797 0
-1798 -1767 0
1798 -1797 1767 0
1798 -1768 0
-1799 1798 0
-1799 -1768 0
1799 -1798 1768 0
1799 -1769 0
-1800 1799 0
-1800 -1769 0
1800 -1799 1769 0
1800 -1498 0
-1801 1800 0
-1801 -1498 0
1801 -1800 1498 0
1801 -1639 0
-1802 1801 0
-1802 -1639 0
1802 -1801 1639 0
1802 -1770 0
-1803 1802 0
-1803 -1770 0
1803 -1802 1770 0
1803 -1771 0
-1804 1803 0
-1804 -1771 0
1804 -1803 1771 0
1804 -1772 0
-1805 1804 0
-1805 -1772 0
1805 -1804 1772 0
1805 -1773 0
-1806 1805 0
-1806 -1773 0
1806 -1805 1773 0
1806 -1774 0
-1807 1806 0
-1807 -1774 0
1807 -1806 1774 0
1807 -684 0
-1808 1807 0
-1808 -684 0
1808 -1807 684 0
1808 -864 0
-1809 1808 0
-1809 -864 0
1809 -1808 864 0
1809 -1036 0
-1810 1809 0
-1810 -1036 0
1810 -1809 1036 0
1810 -1200 0
-1811 1810 0
-1811 -1200 0
1811 -1810 1200 0
1811 -1356 0
-1812 1811 0
-1812 -1356 0
1812 -1811 1356 0
1812 -1504 0
-1813 1812 0
-1813 -1504 0
1813 -1812 1504 0
1813 -1644 0
-1814 1813 0
-1814 -1644 0
1814 -1813 1644 0
1814 -1775 0
-1815 1814 0
-1815 -1775 0
1815 -1814 1775 0
1815 -1776 0
-1816 1815 0
-1816 -1776 0
1816 -1815 1776 0
1816 -1777 0
-1817 1816 0
-1817 -1777 0
1817 -1816 1777 0
1817 -1778 0
-1818 1817 0
-1818 -1778 0
1818 -1817 1778 0
1818 -696 0
-1819 1818 0
-1819 -696 0
1819 -1818 696 0
1819 -875 0
-1820 1819 0
-1820 -875 0
1820 -1819 875 0
1820 -1046 0
-1821 1820 0
-1821 -1046 0
1821 -1820 1046 0
1821 -1209 0
-1822 1821 0
-1822 -1209 0
1822 -1821 1209 0
1822 -1364 0
-1823 1822 0
-1823 -1364 0
1823 -1822 1364 0
-1824 9 0
-1824 21 0
1824 -9 -21 0
-1825 10 0
-1825 20 0
1825 -10 -20 0
-1826 11 0
-1826 19 0
1826 -11 -19 0
-1827 12 0
-1827 18 0
1827 -12 -18 0
-1828 13 0
-1828 17 0
1828 -13 -17 0
-1829 5 0
-1829 33 0
1829 -5 -33 0
-1830 4 0
-1830 32 0
1830 -4 -32 0
-1831 3 0
-1831 31 0
1831 -3 -31 0
-1832 2 0
-1832 30 0
1832 -2 -30 0
-1833 17 0
-1833 49 0
1833 -17 -49 0
-1834 18 0
-1834 48 0
1834 -18 -48 0
-1835 19 0
-1835 47 0
1835 -19 -47 0
-1836 20 0
-1836 46 0
1836 -20 -46 0
-1837 21 0
-1837 45 0
1837 -21 -45 0
-1838 30 0
-1838 38 0
1838 -30 -38 0
-1839 31 0
-1839 39 0
1839 -31 -39 0
-1840 32 0
-1840 40 0
1840 -32 -40 0
-1841 33 0
-1841 41 0
1841 -33 -41 0
1 -1704 0
-1704 -1567 0
-1842 -1704 0
-1842 -1567 0
1842 1704 1567 0
1842 -1422 0
-1843 1842 0
-1843 -1422 0
1843 -1842 1422 0
1843 -1269 0
-1844 1843 0
-1844 -1269 0
1844 -1843 1269 0
1844 -1108 0
-1845 1844 0
-1845 -1108 0
1845 -1844 1108 0
1845 -939 0
-1846 1845 0
-1846 -939 0
1846 -1845 939 0
1846 -762 0
-1847 1846 0
-1847 -762 0
1847 -1846 762 0
1847 -1824 0
-1848 1847 0
-1848 -1824 0
1848 -1847 1824 0
1848 -1825 0
-1849 1848 0
-1849 -1825 0
1849 -1848 1825 0
1849 -1826 0
-1850 1849 0
-1850 -1826 0
1850 -1849 1826 0
1850 -1827 0
-1851 1850 0
-1851 -1827 0
1851 -1850 1827 0
1851 -1828 0
-1852 1851 0
-1852 -1828 0
1852 -1851 1828 0
1852 -1698 0
-1853 1852 0
-1853 -1698 0
1853 -1852 1698 0
1853 -1560 0
-1854 1853 0
-1854 -1560 0
1854 -1853 1560 0
1854 -1414 0
-1855 1854 0
-1855 -1414 0
1855 -1854 1414 0
1855 -1260 0
-1856 1855 0
-1856 -1260 0
1856 -1855 1260 0
1856 -1098 0
-1857 1856 0
-1857 -1098 0
1857 -1856 1098 0
1857 -928 0
-1858 1857 0
-1858 -928 0
1858 -1857 928 0
1858 -750 0
-1859 1858 0
-1859 -750 0
1859 -1858 750 0
1859 -1829 0
-1860 1859 0
-1860 -1829 0
1860 -1859 1829 0
1860 -1830 0
-1861 1860 0
-1861 -1830 0
1861 -1860 1830 0
1861 -1831 0
-1862 1861 0
-1862 -1831 0
1862 -1861 1831 0
1862 -1832 0
-1863 1862 0
-1863 -1832 0
1863 -1862 1832 0
1863 -1425 0
-1864 1863 0
-1864 -1425 0
1864 -1863 1425 0
1864 -1570 0
-1865 1864 0
-1865 -1570 0
1865 -1864 1570 0
1865 -1706 0
-1866 1865 0
-1866 -1706 0
1866 -1865 1706 0
1866 -1833 0
-1867 1866 0
-1867 -1833 0
1867 -1866 1833 0
1867 -1834 0
-1868 1867 0
-1868 -1834 0
1868 -1867 1834 0
1868 -1835 0
-1869 1868 0
-1869 -1835 0
1869 -1868 1835 0
1869 -1836 0
-1870 1869 0
-1870 -1836 0
1870 -1869 1836 0
1870 -1837 0
-1871 1870 0
-1871 -1837 0
1871 -1870 1837 0
1871 -776 0
-1872 1871 0
-1872 -776 0
1872 -1871 776 0
1872 -952 0
-1873 1872 0
-1873 -952 0
1873 -1872 952 0
1873 -1120 0
-1874 1873 0
-1874 -1120 0
1874 -1873 1120 0
1874 -1280 0
-1875 1874 0
-1875 -1280 0
1875 -1874 1280 0
1875 -1432 0
-1876 1875 0
-1876 -1432 0
1876 -1875 1432 0
1876 -1576 0
-1877 1876 0
-1877 -1576 0
1877 -1876 1576 0
1877 -1711 0
-1878 1877 0
-1878 -1711 0
1878 -1877 1711 0
1878 -1838 0
-1879 1878 0
-1879 -1838 0
1879 -1878 1838 0
1879 -1839 0
-1880 1879 0
-1880 -1839 0
1880 -1879 1839 0
1880 -1840 0
-1881 1880 0
-1881 -1840 0
1881 -1880 1840 0
1881 -1841 0
-1882 1881 0
-1882 -1841 0
1882 -1881 1841 0
1882 -788 0
-1883 1882 0
-1883 -788 0
1883 -1882 788 0
1883 -963 0
-1884 1883 0
-1884 -963 0
1884 -1883 963 0
1884 -1130 0
-1885 1884 0
-1885 -1130 0
1885 -1884 1130 0
1885 -1289 0
-1886 1885 0
-1886 -1289 0
1886 -1885 1289 0
-1887 10 0
-1887 21 0
1887 -10 -21 0
-1888 11 0
-1888 20 0
1888 -11 -20 0
-1889 12 0
-1889 19 0
1889 -12 -19 0
-1890 13 0
-1890 18 0
1890 -13 -18 0
-1891 4 0
-1891 33 0
1891 -4 -33 0
-1892 3 0
-1892 32 0
1892 -3 -32 0
-1893 2 0
-1893 31 0
1893 -2 -31 0
-1894 18 0
-1894 49 0
1894 -18 -49 0
-1895 19 0
-1895 48 0
1895 -19 -48 0
-1896 20 0
-1896 47 0
1896 -20 -47 0
-1897 21 0
-1897 46 0
1897 -21 -46 0
-1898 31 0
-1898 38 0
1898 -31 -38 0
-1899 32 0
-1899 39 0
1899 -32 -39 0
-1900 33 0
-1900 40 0
1900 -33 -40 0
1 -1769 0
-1769 -1636 0
-1901 -1769 0
-1901 -1636 0
1901 1769 1636 0
1901 -1495 0
-1902 1901 0
-1902 -1495 0
1902 -1901 1495 0
1902 -1346 0
-1903 1902 0
-1903 -1346 0
1903 -1902 1346 0
1903 -1189 0
-1904 1903 0
-1904 -1189 0
1904 -1903 1189 0
1904 -1024 0
-1905 1904 0
-1905 -1024 0
1905 -1904 1024 0
1905 -851 0
-1906 1905 0
-1906 -851 0
1906 -1905 851 0
1906 -670 0
-1907 1906 0
-1907 -670 0
1907 -1906 670 0
1907 -1887 0
-1908 1907 0
-1908 -1887 0
1908 -1907 1887 0
1908 -1888 0
-1909 1908 0
-1909 -1888 0
1909 -1908 1888 0
1909 -1889 0
-1910 1909 0
-1910 -1889 0
1910 -1909 1889 0
1910 -1890 0
-1911 1910 0
-1911 -1890 0
1911 -1910 1890 0
1911 -1764 0
-1912 1911 0
-1912 -1764 0
1912 -1911 1764 0
1912 -1630 0
-1913 1912 0
-1913 -1630 0
1913 -1912 1630 0
1913 -1488 0
-1914 1913 0
-1914 -1488 0
1914 -1913 1488 0
1914 -1338 0
-1915 1914 0
-1915 -1338 0
1915 -1914 1338 0
1915 -1180 0
-1916 1915 0
-1916 -1180 0
1916 -1915 1180 0
1916 -1014 0
-1917 1916 0
-1917 -1014 0
1917 -1916 1014 0
1917 -840 0
-1918 1917 0
-1918 -840 0
1918 -1917 840 0
1918 -658 0
-1919 1918 0
-1919 -658 0
1919 -1918 658 0
1919 -1891 0
-1920 1919 0
-1920 -1891 0
1920 -1919 1891 0
1920 -1892 0
-1921 1920 0
-1921 -1892 0
1921 -1920 1892 0
1921 -1893 0
-1922 1921 0
-1922 -1893 0
1922 -1921 1893 0
1922 -1350 0
-1923 1922 0
-1923 -1350 0
1923 -1922 1350 0
1923 -1499 0
-1924 1923 0
-1924 -1499 0
1924 -1923 1499 0
1924 -1640 0
-1925 1924 0
-1925 -1640 0
1925 -1924 1640 0
1925 -1771 0
-1926 1925 0
-1926 -1771 0
1926 -1925 1771 0
1926 -1894 0
-1927 1926 0
-1927 -1894 0
1927 -1926 1894 0
1927 -1895 0
-1928 1927 0
-1928 -1895 0
1928 -1927 1895 0
1928 -1896 0
-1929 1928 0
-1929 -1896 0
1929 -1928 1896 0
1929 -1897 0
-1930 1929 0
-1930 -1897 0
1930 -1929 1897 0
1930 -685 0
-1931 1930 0
-1931 -685 0
1931 -1930 685 0
1931 -865 0
-1932 1931 0
-1932 -865 0
1932 -1931 865 0
1932 -1037 0
-1933 1932 0
-1933 -1037 0
1933 -1932 1037 0
1933 -1201 0
-1934 1933 0
-1934 -1201 0
1934 -1933 1201 0
1934 -1357 0
-1935 1934 0
-1935 -1357 0
1935 -1934 1357 0
1935 -1505 0
-1936 1935 0
-1936 -1505 0
1936 -1935 1505 0
1936 -1645 0
-1937 1936 0
-1937 -1645 0
1937 -1936 1645 0
1937 -1775 0
-1938 1937 0
-1938 -1775 0
1938 -1937 1775 0
1938 -1898 0
-1939 1938 0
-1939 -1898 0
1939 -1938 1898 0
1939 -1899 0
-1940 1939 0
-1940 -1899 0
1940 -1939 1899 0
1940 -1900 0
-1941 1940 0
-1941 -1900 0
1941 -1940 1900 0
1941 -697 0
-1942 1941 0
-1942 -697 0
1942 -1941 697 0
1942 -876 0
-1943 1942 0
-1943 -876 0
1943 -1942 876 0
1943 -1047 0
-1944 1943 0
-1944 -1047 0
1944 -1943 1047 0
1944 -1210 0
-1945 1944 0
-1945 -1210 0
1945 -1944 1210 0
-1946 10 0
-1946 22 0
1946 -10 -22 0
-1947 11 0
-1947 21 0
1947 -11 -21 0
-1948 12 0
-1948 20 0
1948 -12 -20 0
-1949 13 0
-1949 19 0
1949 -13 -19 0
-1950 4 0
-1950 34 0
1950 -4 -34 0
-1951 3 0
-1951 33 0
1951 -3 -33 0
-1952 2 0
-1952 32 0
1952 -2 -32 0
-1953 19 0
-1953 49 0
1953 -19 -49 0
-1954 20 0
-1954 48 0
1954 -20 -48 0
-1955 21 0
-1955 47 0
1955 -21 -47 0
-1956 22 0
-1956 46 0
1956 -22 -46 0
-1957 32 0
-1957 38 0
1957 -32 -38 0
-1958 33 0
-1958 39 0
1958 -33 -39 0
-1959 34 0
-1959 40 0
1959 -34 -40 0
1 -1832 0
-1832 -1703 0
-1960 -1832 0
-1960 -1703 0
1960 1832 1703 0
1960 -1566 0
-1961 1960 0
-1961 -1566 0
1961 -1960 1566 0
1961 -1421 0
-1962 1961 0
-1962 -1421 0
1962 -1961 1421 0
1962 -1268 0
-1963 1962 0
-1963 -1268 0
1963 -1962 1268 0
1963 -1107 0
-1964 1963 0
-1964 -1107 0
1964 -1963 1107 0
1964 -938 0
-1965 1964 0
-1965 -938 0
1965 -1964 938 0
1965 -761 0
-1966 1965 0
-1966 -761 0
1966 -1965 761 0
1966 -1946 0
-1967 1966 0
-1967 -1946 0
1967 -1966 1946 0
1967 -1947 0
-1968 1967 0
-1968 -1947 0
1968 -1967 1947 0
1968 -1948 0
-1969 1968 0
-1969 -1948 0
1969 -1968 1948 0
1969 -1949 0
-1970 1969 0
-1970 -1949 0
1970 -1969 1949 0
1970 -1827 0
-1971 1970 0
-1971 -1827 0
1971 -1970 1827 0
1971 -1697 0
-1972 1971 0
-1972 -1697 0
1972 -1971 1697 0
1972 -1559 0
-1973 1972 0
-1973 -1559 0
1973 -1972 1559 0
1973 -1413 0
-1974 1973 0
-1974 -1413 0
1974 -1973 1413 0
1974 -1259 0
-1975 1974 0
-1975 -1259 0
1975 -1974 1259 0
1975 -1097 0
-1976 1975 0
-1976 -1097 0
1976 -1975 1097 0
1976 -927 0
-1977 1976 0
-1977 -927 0
1977 -1976 927 0
1977 -749 0
-1978 1977 0
-1978 -749 0
1978 -1977 749 0
1978 -1950 0
-1979 1978 0
-1979 -1950 0
1979 -1978 1950 0
1979 -1951 0
-1980 1979 0
-1980 -1951 0
1980 -1979 1951 0
1980 -1952 0
-1981 1980 0
-1981 -1952 0
1981 -1980 1952 0
1981 -1273 0
-1982 1981 0
-1982 -1273 0
1982 -1981 1273 0
1982 -1426 0
-1983 1982 0
-1983 -1426 0
1983 -1982 1426 0
1983 -1571 0
-1984 1983 0
-1984 -1571 0
1984 -1983 1571 0
1984 -1707 0
-1985 1984 0
-1985 -1707 0
1985 -1984 1707 0
1985 -1834 0
-1986 1985 0
-1986 -1834 0
1986 -1985 1834 0
1986 -1953 0
-1987 1986 0
-1987 -1953 0
1987 -1986 1953 0
1987 -1954 0
-1988 1987 0
-1988 -1954 0
1988 -1987 1954 0
1988 -1955 0
-1989 1988 0
-1989 -1955 0
1989 -1988 1955 0
1989 -1956 0
-1990 1989 0
-1990 -1956 0
1990 -1989 1956 0
1990 -777 0
-1991 1990 0
-1991 -777 0
1991 -1990 777 0
1991 -953 0
-1992 1991 0
-1992 -953 0
1992 -1991 953 0
1992 -1121 0
-1993 1992 0
-1993 -1121 0
1993 -1992 1121 0
1993 -1281 0
-1994 1993 0
-1994 -1281 0
1994 -1993 1281 0
1994 -1433 0
-1995 1994 0
-1995 -1433 0
1995 -1994 1433 0
1995 -1577 0
-1996 1995 0
-1996 -1577 0
1996 -1995 1577 0
1996 -1712 0
-1997 1996 0
-1997 -1712 0
1997 -1996 1712 0
1997 -1838 0
-1998 1997 0
-1998 -1838 0
1998 -1997 1838 0
1998 -1957 0
-1999 1998 0
-1999 -1957 0
1999 -1998 1957 0
1999 -1958 0
-2000 1999 0
-2000 -1958 0
2000 -1999 1958 0
2000 -1959 0
-2001 2000 0
-2001 -1959 0
2001 -2000 1959 0
2001 -789 0
-2002 2001 0
-2002 -789 0
2002 -2001 789 0
2002 -964 0
-2003 2002 0
-2003 -964 0
2003 -2002 964 0
2003 -1131 0
-2004 2003 0
-2004 -1131 0
2004 -2003 1131 0
-2005 11 0
-2005 22 0
2005 -11 -22 0
-2006 12 0
-2006 21 0
2006 -12 -21 0
-2007 13 0
-2007 20 0
2007 -13 -20 0
-2008 3 0
-2008 34 0
2008 -3 -34 0
-2009 2 0
-2009 33 0
2009 -2 -33 0
-2010 20 0
-2010 49 0
2010 -20 -49 0
-2011 21 0
-2011 48 0
2011 -21 -48 0
-2012 22 0
-2012 47 0
2012 -22 -47 0
-2013 33 0
-2013 38 0
2013 -33 -38 0
-2014 34 0
-2014 39 0
2014 -34 -39 0
1 -1893 0
-1893 -1768 0
-2015 -1893 0
-2015 -1768 0
2015 1893 1768 0
2015 -1635 0
-2016 2015 0
-2016 -1635 0
2016 -2015 1635 0
2016 -1494 0
-2017 2016 0
-2017 -1494 0
2017 -2016 1494 0
2017 -1345 0
-2018 2017 0
-2018 -1345 0
2018 -2017 1345 0
2018 -1188 0
-2019 2018 0
-2019 -1188 0
2019 -2018 1188 0
2019 -1023 0
-2020 2019 0
-2020 -1023 0
2020 -2019 1023 0
2020 -850 0
-2021 2020 0
-2021 -850 0
2021 -2020 850 0
2021 -669 0
-2022 2021 0
-2022 -669 0
2022 -2021 669 0
2022 -2005 0
-2023 2022 0
-2023 -2005 0
2023 -2022 2005 0
2023 -2006 0
-2024 2023 0
-2024 -2006 0
2024 -2023 2006 0
2024 -2007 0
-2025 2024 0
-2025 -2007 0
2025 -2024 2007 0
2025 -1889 0
-2026 2025 0
-2026 -1889 0
2026 -2025 1889 0
2026 -1763 0
-2027 2026 0
-2027 -1763 0
2027 -2026 1763 0
2027 -1629 0
-2028 2027 0
-2028 -1629 0
2028 -2027 1629 0
2028 -1487 0
-2029 2028 0
-2029 -1487 0
2029 -2028 1487 0
2029 -1337 0
-2030 2029 0
-2030 -1337 0
2030 -2029 1337 0
2030 -1179 0
-2031 2030 0
-2031 -1179 0
2031 -2030 1179 0
2031 -1013 0
-2032 2031 0
-2032 -1013 0
2032 -2031 1013 0
2032 -839 0
-2033 2032 0
-2033 -839 0
2033 -2032 839 0
2033 -657 0
-2034 2033 0
-2034 -657 0
2034 -2033 657 0
2034 -2008 0
-2035 2034 0
-2035 -2008 0
2035 -2034 2008 0
2035 -2009 0
-2036 2035 0
-2036 -2009 0
2036 -2035 2009 0
2036 -1194 0
-2037 2036 0
-2037 -1194 0
2037 -2036 1194 0
2037 -1351 0
-2038 2037 0
-2038 -1351 0
2038 -2037 1351 0
2038 -1500 0
-2039 2038 0
-2039 -1500 0
2039 -2038 1500 0
2039 -1641 0
-2040 2039 0
-2040 -1641 0
2040 -2039 1641 0
2040 -1772 0
-2041 2040 0
-2041 -1772 0
2041 -2040 1772 0
2041 -1895 0
-2042 2041 0
-2042 -1895 0
2042 -2041 1895 0
2042 -2010 0
-2043 2042 0
-2043 -2010 0
2043 -2042 2010 0
2043 -2011 0
-2044 2043 0
-2044 -2011 0
2044 -2043 2011 0
2044 -2012 0
-2045 2044 0
-2045 -2012 0
2045 -2044 2012 0
2045 -686 0
-2046 2045 0
-2046 -686 0
2046 -2045 686 0
2046 -866 0
-2047 2046 0
-2047 -866 0
2047 -2046 866 0
2047 -1038 0
-2048 2047 0
-2048 -1038 0
2048 -2047 1038 0
2048 -1202 0
-2049 2048 0
-2049 -1202 0
2049 -2048 1202 0
2049 -1358 0
-2050 2049 0
-2050 -1358 0
2050 -2049 1358 0
2050 -1506 0
-2051 2050 0
-2051 -1506 0
2051 -2050 1506 0
2051 -1646 0
-2052 2051 0
-2052 -1646 0
2052 -2051 1646 0
2052 -1776 0
-2053 2052 0
-2053 -1776 0
2053 -2052 1776 0
2053 -1898 0
-2054 2053 0
-2054 -1898 0
2054 -2053 1898 0
2054 -2013 0
-2055 2054 0
-2055 -2013 0
2055 -2054 2013 0
2055 -2014 0
-2056 2055 0
-2056 -2014 0
2056 -2055 2014 0
2056 -698 0
-2057 2056 0
-2057 -698 0
2057 -2056 698 0
2057 -877 0
-2058 2057 0
-2058 -877 0
2058 -2057 877 0
2058 -1048 0
-2059 2058 0
-2059 -1048 0
2059 -2058 1048 0
-2060 11 0
-2060 23 0
2060 -11 -23 0
-2061 12 0
-2061 22 0
2061 -12 -22 0
-2062 13 0
-2062 21 0
2062 -13 -21 0
-2063 3 0
-2063 35 0
2063 -3 -35 0
-2064 2 0
-2064 34 0
2064 -2 -34 0
-2065 21 0
-2065 49 0
2065 -21 -49 0
-2066 22 0
-2066 48 0
2066 -22 -48 0
-2067 23 0
-2067 47 0
2067 -23 -47 0
-2068 34 0
-2068 38 0
2068 -34 -38 0
-2069 35 0
-2069 39 0
2069 -35 -39 0
1 -1952 0
-1952 -1831 0
-2070 -1952 0
-2070 -1831 0
2070 1952 1831 0
2070 -1702 0
-2071 2070 0
-2071 -1702 0
2071 -2070 1702 0
2071 -1565 0
-2072 2071 0
-2072 -1565 0
2072 -2071 1565 0
2072 -1420 0
-2073 2072 0
-2073 -1420 0
2073 -2072 1420 0
2073 -1267 0
-2074 2073 0
-2074 -1267 0
2074 -2073 1267 0
2074 -1106 0
-2075 2074 0
-2075 -1106 0
2075 -2074 1106 0
2075 -937 0
-2076 2075 0
-2076 -937 0
2076 -2075 937 0
2076 -760 0
-2077 2076 0
-2077 -760 0
2077 -2076 760 0
2077 -2060 0
-2078 2077 0
-2078 -2060 0
2078 -2077 2060 0
2078 -2061 0
-2079 2078 0
-2079 -2061 0
2079 -2078 2061 0
2079 -2062 0
-2080 2079 0
-2080 -2062 0
2080 -2079 2062 0
2080 -1948 0
-2081 2080 0
-2081 -1948 0
2081 -2080 1948 0
2081 -1826 0
-2082 2081 0
-2082 -1826 0
2082 -2081 1826 0
2082 -1696 0
-2083 2082 0
-2083 -1696 0
2083 -2082 1696 0
2083 -1558 0
-2084 2083 0
-2084 -1558 0
2084 -2083 1558 0
2084 -1412 0
-2085 2084 0
-2085 -1412 0
2085 -2084 1412 0
2085 -1258 0
-2086 2085 0
-2086 -1258 0
2086 -2085 1258 0
2086 -1096 0
-2087 2086 0
-2087 -1096 0
2087 -2086 1096 0
2087 -926 0
-2088 2087 0
-2088 -926 0
2088 -2087 926 0
2088 -748 0
-2089 2088 0
-2089 -748 0
2089 -2088 748 0
2089 -2063 0
-2090 2089 0
-2090 -2063 0
2090 -2089 2063 0
2090 -2064 0
-2091 2090 0
-2091 -2064 0
2091 -2090 2064 0
2091 -1113 0
-2092 2091 0
-2092 -1113 0
2092 -2091 1113 0
2092 -1274 0
-2093 2092 0
-2093 -1274 0
2093 -2092 1274 0
2093 -1427 0
-2094 2093 0
-2094 -1427 0
2094 -2093 1427 0
2094 -1572 0
-2095 2094 0
-2095 -1572 0
2095 -2094 1572 0
2095 -1708 0
-2096 2095 0
-2096 -1708 0
2096 -2095 1708 0
2096 -1835 0
-2097 2096 0
-2097 -1835 0
2097 -2096 1835 0
2097 -1954 0
-2098 2097 0
-2098 -1954 0
2098 -2097 1954 0
2098 -2065 0
-2099 2098 0
-2099 -2065 0
2099 -2098 2065 0
2099 -2066 0
-2100 2099 0
-2100 -2066 0
2100 -2099 2066 0
2100 -2067 0
-2101 2100 0
-2101 -2067 0
2101 -2100 2067 0
2101 -778 0
-2102 2101 0
-2102 -778 0
2102 -2101 778 0
2102 -954 0
-2103 2102 0
-2103 -954 0
2103 -2102 954 0
2103 -1122 0
-2104 2103 0
-2104 -1122 0
2104 -2103 1122 0
2104 -1282 0
-2105 2104 0
-2105 -1282 0
2105 -2104 1282 0
2105 -1434 0
-2106 2105 0
-2106 -1434 0
2106 -2105 1434 0
2106 -1578 0
-2107 2106 0
-2107 -1578 0
2107 -2106 1578 0
2107 -1713 0
-2108 2107 0
-2108 -1713 0
2108 -2107 1713 0
2108 -1839 0
-2109 2108 0
-2109 -1839 0
2109 -2108 1839 0
2109 -1957 0
-2110 2109 0
-2110 -1957 0
2110 -2109 1957 0
2110 -2068 0
-2111 2110 0
-2111 -2068 0
2111 -2110 2068 0
2111 -2069 0
-2112 2111 0
-2112 -2069 0
2112 -2111 2069 0
2112 -790 0
-2113 2112 0
-2113 -790 0
2113 -2112 790 0
2113 -965 0
-2114 2113 0
-2114 -965 0
2114 -2113 965 0
-2115 12 0
-2115 23 0
2115 -12 -23 0
-2116 13 0
-2116 22 0
2116 -13 -22 0
-2117 2 0
-2117 35 0
2117 -2 -35 0
-2118 22 0
-2118 49 0
2118 -22 -49 0
-2119 23 0
-2119 48 0
2119 -23 -48 0
-2120 35 0
-2120 38 0
2120 -35 -38 0
1 -2009 0
-2009 -1892 0
-2121 -2009 0
-2121 -1892 0
2121 2009 1892 0
2121 -1767 0
-2122 2121 0
-2122 -1767 0
2122 -2121 1767 0
2122 -1634 0
-2123 2122 0
-2123 -1634 0
2123 -2122 1634 0
2123 -1493 0
-2124 2123 0
-2124 -1493 0
2124 -2123 1493 0
2124 -1344 0
-2125 2124 0
-2125 -1344 0
2125 -2124 1344 0
2125 -1187 0
-2126 2125 0
-2126 -1187 0
2126 -2125 1187 0
2126 -1022 0
-2127 2126 0
-2127 -1022 0
2127 -2126 1022 0
2127 -849 0
-2128 2127 0
-2128 -849 0
2128 -2127 849 0
2128 -668 0
-2129 2128 0
-2129 -668 0
2129 -2128 668 0
2129 -2115 0
-2130 2129 0
-2130 -2115 0
2130 -2129 2115 0
2130 -2116 0
-2131 2130 0
-2131 -2116 0
2131 -2130 2116 0
2131 -2006 0
-2132 2131 0
-2132 -2006 0
2132 -2131 2006 0
2132 -1888 0
-2133 2132 0
-2133 -1888 0
2133 -2132 1888 0
2133 -1762 0
-2134 2133 0
-2134 -1762 0
2134 -2133 1762 0
2134 -1628 0
-2135 2134 0
-2135 -1628 0
2135 -2134 1628 0
2135 -1486 0
-2136 2135 0
-2136 -1486 0
2136 -2135 1486 0
2136 -1336 0
-2137 2136 0
-2137 -1336 0
2137 -2136 1336 0
2137 -1178 0
-2138 2137 0
-2138 -1178 0
2138 -2137 1178 0
2138 -1012 0
-2139 2138 0
-2139 -1012 0
2139 -2138 1012 0
2139 -838 0
-2140 2139 0
-2140 -838 0
2140 -2139 838 0
2140 -656 0
-2141 2140 0
-2141 -656 0
2141 -2140 656 0
2141 -2117 0
-2142 2141 0
-2142 -2117 0
2142 -2141 2117 0
2142 -1030 0
-2143 2142 0
-2143 -1030 0
2143 -2142 1030 0
2143 -1195 0
-2144 2143 0
-2144 -1195 0
2144 -2143 1195 0
2144 -1352 0
-2145 2144 0
-2145 -1352 0
2145 -2144 1352 0
2145 -1501 0
-2146 2145 0
-2146 -1501 0
2146 -2145 1501 0
2146 -1642 0
-2147 2146 0
-2147 -1642 0
2147 -2146 1642 0
2147 -1773 0
-2148 2147 0
-2148 -1773 0
2148 -2147 1773 0
2148 -1896 0
-2149 2148 0
-2149 -1896 0
2149 -2148 1896 0
2149 -2011 0
-2150 2149 0
-2150 -2011 0
2150 -2149 2011 0
2150 -2118 0
-2151 2150 0
-2151 -2118 0
2151 -2150 2118 0
2151 -2119 0
-2152 2151 0
-2152 -2119 0
2152 -2151 2119 0
2152 -687 0
-2153 2152 0
-2153 -687 0
2153 -2152 687 0
2153 -867 0
-2154 2153 0
-2154 -867 0
2154 -2153 867 0
2154 -1039 0
-2155 2154 0
-2155 -1039 0
2155 -2154 1039 0
2155 -1203 0
-2156 2155 0
-2156 -1203 0
2156 -2155 1203 0
2156 -1359 0
-2157 2156 0
-2157 -1359 0
2157 -2156 1359 0
2157 -1507 0
-2158 2157 0
-2158 -1507 0
2158 -2157 1507 0
2158 -1647 0
-2159 2158 0
-2159 -1647 0
2159 -2158 1647 0
2159 -1777 0
-2160 2159 0
-2160 -1777 0
2160 -2159 1777 0
2160 -1899 0
-2161 2160 0
-2161 -1899 0
2161 -2160 1899 0
2161 -2013 0
-2162 2161 0
-2162 -2013 0
2162 -2161 2013 0
2162 -2120 0
-2163 2162 0
-2163 -2120 0
2163 -2162 2120 0
2163 -699 0
-2164 2163 0
-2164 -699 0
2164 -2163 699 0
2164 -878 0
-2165 2164 0
-2165 -878 0
2165 -2164 878 0
-2166 12 0
-2166 24 0
2166 -12 -24 0
-2167 13 0
-2167 23 0
2167 -13 -23 0
-2168 2 0
-2168 36 0
2168 -2 -36 0
-2169 23 0
-2169 49 0
2169 -23 -49 0
-2170 24 0
-2170 48 0
2170 -24 -48 0
-2171 36 0
-2171 38 0
2171 -36 -38 0
1 -2064 0
-2064 -1951 0
-2172 -2064 0
-2172 -1951 0
2172 2064 1951 0
2172 -1830 0
-2173 2172 0
-2173 -1830 0
2173 -2172 1830 0
2173 -1701 0
-2174 2173 0
-2174 -1701 0
2174 -2173 1701 0
2174 -1564 0
-2175 2174 0
-2175 -1564 0
2175 -2174 1564 0
2175 -1419 0
-2176 2175 0
-2176 -1419 0
2176 -2175 1419 0
2176 -1266 0
-2177 2176 0
-2177 -1266 0
2177 -2176 1266 0
2177 -1105 0
-2178 2177 0
-2178 -1105 0
2178 -2177 1105 0
2178 -936 0
-2179 2178 0
-2179 -936 0
2179 -2178 936 0
2179 -759 0
-2180 2179 0
-2180 -759 0
2180 -2179 759 0
2180 -2166 0
-2181 2180 0
-2181 -2166 0
2181 -2180 2166 0
2181 -2167 0
-2182 2181 0
-2182 -2167 0
2182 -2181 2167 0
2182 -2061 0
-2183 2182 0
-2183 -2061 0
2183 -2182 2061 0
2183 -1947 0
-2184 2183 0
-2184 -1947 0
2184 -2183 1947 0
2184 -1825 0
-2185 2184 0
-2185 -1825 0
2185 -2184 1825 0
2185 -1695 0
-2186 2185 0
-2186 -1695 0
2186 -2185 1695 0
2186 -1557 0
-2187 2186 0
-2187 -1557 0
2187 -2186 1557 0
2187 -1411 0
-2188 2187 0
-2188 -1411 0
2188 -2187 1411 0
2188 -1257 0
-2189 2188 0
-2189 -1257 0
2189 -2188 1257 0
2189 -1095 0
-2190 2189 0
-2190 -1095 0
2190 -2189 1095 0
2190 -925 0
-2191 2190 0
-2191 -925 0
2191 -2190 925 0
2191 -747 0
-2192 2191 0
-2192 -747 0
2192 -2191 747 0
2192 -2168 0
-2193 2192 0
-2193 -2168 0
2193 -2192 2168 0
2193 -945 0
-2194 2193 0
-2194 -945 0
2194 -2193 945 0
2194 -1114 0
-2195 2194 0
-2195 -1114 0
2195 -2194 1114 0
2195 -1275 0
-2196 2195 0
-2196 -1275 0
2196 -2195 1275 0
2196 -1428 0
-2197 2196 0
-2197 -1428 0
2197 -2196 1428 0
2197 -1573 0
-2198 2197 0
-2198 -1573 0
2198 -2197 1573 0
2198 -1709 0
-2199 2198 0
-2199 -1709 0
2199 -2198 1709 0
2199 -1836 0
-2200 2199 0
-2200 -1836 0
2200 -2199 1836 0
2200 -1955 0
-2201 2200 0
-2201 -1955 0
2201 -2200 1955 0
2201 -2066 0
-2202 2201 0
-2202 -2066 0
2202 -2201 2066 0
2202 -2169 0
-2203 2202 0
-2203 -2169 0
2203 -2202 2169 0
2203 -2170 0
-2204 2203 0
-2204 -2170 0
2204 -2203 2170 0
2204 -779 0
-2205 2204 0
-2205 -779 0
2205 -2204 779 0
2205 -955 0
-2206 2205 0
-2206 -955 0
2206 -2205 955 0
2206 -1123 0
-2207 2206 0
-2207 -1123 0
2207 -2206 1123 0
2207 -1283 0
-2208 2207 0
-2208 -1283 0
2208 -2207 1283 0
2208 -1435 0
-2209 2208 0
-2209 -1435 0
2209 -2208 1435 0
2209 -1579 0
-2210 2209 0
-2210 -1579 0
2210 -2209 1579 0
2210 -1714 0
-2211 2210 0
-2211 -1714 0
2211 -2210 1714 0
2211 -1840 0
-2212 2211 0
-2212 -1840 0
2212 -2211 1840 0
2212 -1958 0
-2213 2212 0
-2213 -1958 0
2213 -2212 1958 0
2213 -2068 0
-2214 2213 0
-2214 -2068 0
2214 -2213 2068 0
2214 -2171 0
-2215 2214 0
-2215 -2171 0
2215 -2214 2171 0
2215 -791 0
-2216 2215 0
-2216 -791 0
2216 -2215 791 0
-2217 13 0
-2217 24 0
2217 -13 -24 0
-2218 24 0
-2218 49 0
2218 -24 -49 0
1 -2117 0
-2117 -2008 0
-2219 -2117 0
-2219 -2008 0
2219 2117 2008 0
2219 -1891 0
-2220 2219 0
-2220 -1891 0
2220 -2219 1891 0
2220 -1766 0
-2221 2220 0
-2221 -1766 0
2221 -2220 1766 0
2221 -1633 0
-2222 2221 0
-2222 -1633 0
2222 -2221 1633 0
2222 -1492 0
-2223 2222 0
-2223 -1492 0
2223 -2222 1492 0
2223 -1343 0
-2224 2223 0
-2224 -1343 0
2224 -2223 1343 0
2224 -1186 0
-2225 2224 0
-2225 -1186 0
2225 -2224 1186 0
2225 -1021 0
-2226 2225 0
-2226 -1021 0
2226 -2225 1021 0
2226 -848 0
-2227 2226 0
-2227 -848 0
2227 -2226 848 0
2227 -667 0
-2228 2227 0
-2228 -667 0
2228 -2227 667 0
2228 -2217 0
-2229 2228 0
-2229 -2217 0
2229 -2228 2217 0
2229 -2115 0
-2230 2229 0
-2230 -2115 0
2230 -2229 2115 0
2230 -2005 0
-2231 2230 0
-2231 -2005 0
2231 -2230 2005 0
2231 -1887 0
-2232 2231 0
-2232 -1887 0
2232 -2231 1887 0
2232 -1761 0
-2233 2232 0
-2233 -1761 0
2233 -2232 1761 0
2233 -1627 0
-2234 2233 0
-2234 -1627 0
2234 -2233 1627 0
2234 -1485 0
-2235 2234 0
-2235 -1485 0
2235 -2234 1485 0
2235 -1335 0
-2236 2235 0
-2236 -1335 0
2236 -2235 1335 0
2236 -1177 0
-2237 2236 0
-2237 -1177 0
2237 -2236 1177 0
2237 -1011 0
-2238 2237 0
-2238 -1011 0
2238 -2237 1011 0
2238 -837 0
-2239 2238 0
-2239 -837 0
2239 -2238 837 0
2239 -655 0
-2240 2239 0
-2240 -655 0
2240 -2239 655 0
2240 -858 0
-2241 2240 0
-2241 -858 0
2241 -2240 858 0
2241 -1031 0
-2242 2241 0
-2242 -1031 0
2242 -2241 1031 0
2242 -1196 0
-2243 2242 0
-2243 -1196 0
2243 -2242 1196 0
2243 -1353 0
-2244 2243 0
-2244 -1353 0
2244 -2243 1353 0
2244 -1502 0
-2245 2244 0
-2245 -1502 0
2245 -2244 1502 0
2245 -1643 0
-2246 2245 0
-2246 -1643 0
2246 -2245 1643 0
2246 -1774 0
-2247 2246 0
-2247 -1774 0
2247 -2246 1774 0
2247 -1897 0
-2248 2247 0
-2248 -1897 0
2248 -2247 1897 0
2248 -2012 0
-2249 2248 0
-2249 -2012 0
2249 -2248 2012 0
2249 -2119 0
-2250 2249 0
-2250 -2119 0
2250 -2249 2119 0
2250 -2218 0
-2251 2250 0
-2251 -2218 0
2251 -2250 2218 0
2251 -688 0
-2252 2251 0
-2252 -688 0
2252 -2251 688 0
2252 -868 0
-2253 2252 0
-2253 -868 0
2253 -2252 868 0
2253 -1040 0
-2254 2253 0
-2254 -1040 0
2254 -2253 1040 0
2254 -1204 0
-2255 2254 0
-2255 -1204 0
2255 -2254 1204 0
2255 -1360 0
-2256 2255 0
-2256 -1360 0
2256 -2255 1360 0
2256 -1508 0
-2257 2256 0
-2257 -1508 0
2257 -2256 1508 0
2257 -1648 0
-2258 2257 0
-2258 -1648 0
2258 -2257 1648 0
2258 -1778 0
-2259 2258 0
-2259 -1778 0
2259 -2258 1778 0
2259 -1900 0
-2260 2259 0
-2260 -1900 0
2260 -2259 1900 0
2260 -2014 0
-2261 2260 0
-2261 -2014 0
2261 -2260 2014 0
2261 -2120 0
-2262 2261 0
-2262 -2120 0
2262 -2261 2120 0
2262 -700 0
-2263 2262 0
-2263 -700 0
2263 -2262 700 0
-2264 13 0
-2264 25 0
2264 -13 -25 0
-2265 25 0
-2265 49 0
2265 -25 -49 0
1 -2168 0
-2168 -2063 0
-2266 -2168 0
-2266 -2063 0
2266 2168 2063 0
2266 -1950 0
-2267 2266 0
-2267 -1950 0
2267 -2266 1950 0
2267 -1829 0
-2268 2267 0
-2268 -1829 0
2268 -2267 1829 0
2268 -1700 0
-2269 2268 0
-2269 -1700 0
2269 -2268 1700 0
2269 -1563 0
-2270 2269 0
-2270 -1563 0
2270 -2269 1563 0
2270 -1418 0
-2271 2270 0
-2271 -1418 0
2271 -2270 1418 0
2271 -1265 0
-2272 2271 0
-2272 -1265 0
2272 -2271 1265 0
2272 -1104 0
-2273 2272 0
-2273 -1104 0
2273 -2272 1104 0
2273 -935 0
-2274 2273 0
-2274 -935 0
2274 -2273 935 0
2274 -758 0
-2275 2274 0
-2275 -758 0
2275 -2274 758 0
2275 -2264 0
-2276 2275 0
-2276 -2264 0
2276 -2275 2264 0
2276 -2166 0
-2277 2276 0
-2277 -2166 0
2277 -2276 2166 0
2277 -2060 0
-2278 2277 0
-2278 -2060 0
2278 -2277 2060 0
2278 -1946 0
-2279 2278 0
-2279 -1946 0
2279 -2278 1946 0
2279 -1824 0
-2280 2279 0
-2280 -1824 0
2280 -2279 1824 0
2280 -1694 0
-2281 2280 0
-2281 -1694 0
2281 -2280 1694 0
2281 -1556 0
-2282 2281 0
-2282 -1556 0
2282 -2281 1556 0
2282 -1410 0
-2283 2282 0
-2283 -1410 0
2283 -2282 1410 0
2283 -1256 0
-2284 2283 0
-2284 -1256 0
2284 -2283 1256 0
2284 -1094 0
-2285 2284 0
-2285 -1094 0
2285 -2284 1094 0
2285 -924 0
-2286 2285 0
-2286 -924 0
2286 -2285 924 0
2286 -746 0
-2287 2286 0
-2287 -746 0
2287 -2286 746 0
2287 -769 0
-2288 2287 0
-2288 -769 0
2288 -2287 769 0
2288 -946 0
-2289 2288 0
-2289 -946 0
2289 -2288 946 0
2289 -1115 0
-2290 2289 0
-2290 -1115 0
2290 -2289 1115 0
2290 -1276 0
-2291 2290 0
-2291 -1276 0
2291 -2290 1276 0
2291 -1429 0
-2292 2291 0
-2292 -1429 0
2292 -2291 1429 0
2292 -1574 0
-2293 2292 0
-2293 -1574 0
2293 -2292 1574 0
2293 -1710 0
-2294 2293 0
-2294 -1710 0
2294 -2293 1710 0
2294 -1837 0
-2295 2294 0
-2295 -1837 0
2295 -2294 1837 0
2295 -1956 0
-2296 2295 0
-2296 -1956 0
2296 -2295 1956 0
2296 -2067 0
-2297 2296 0
-2297 -2067 0
2297 -2296 2067 0
2297 -2170 0
-2298 2297 0
-2298 -2170 0
2298 -2297 2170 0
2298 -2265 0
-2299 2298 0
-2299 -2265 0
2299 -2298 2265 0
2299 -780 0
-2300 2299 0
-2300 -780 0
2300 -2299 780 0
2300 -956 0
-2301 2300 0
-2301 -956 0
2301 -2300 956 0
2301 -1124 0
-2302 2301 0
-2302 -1124 0
2302 -2301 1124 0
2302 -1284 0
-2303 2302 0
-2303 -1284 0
2303 -2302 1284 0
2303 -1436 0
-2304 2303 0
-2304 -1436 0
2304 -2303 1436 0
2304 -1580 0
-2305 2304 0
-2305 -1580 0
2305 -2304 1580 0
2305 -1715 0
-2306 2305 0
-2306 -1715 0
2306 -2305 1715 0
2306 -1841 0
-2307 2306 0
-2307 -1841 0
2307 -2306 1841 0
2307 -1959 0
-2308 2307 0
-2308 -1959 0
2308 -2307 1959 0
2308 -2069 0
-2309 2308 0
-2309 -2069 0
2309 -2308 2069 0
2309 -2171 0
-2310 2309 0
-2310 -2171 0
2310 -2309 2171 0
-2311 39 0
-2311 38 0
2311 -39 -38 0
-2312 40 0
-2312 39 0
2312 -40 -39 0
-2313 41 0
-2313 40 0
2313 -41 -40 0
-2314 42 0
-2314 41 0
2314 -42 -41 0
-2315 43 0
-2315 42 0
2315 -43 -42 0
-2316 44 0
-2316 43 0
2316 -44 -43 0
-2317 45 0
-2317 44 0
2317 -45 -44 0
-2318 46 0
-2318 45 0
2318 -46 -45 0
-2319 47 0
-2319 46 0
2319 -47 -46 0
-2320 48 0
-2320 47 0
2320 -48 -47 0
-2321 49 0
-2321 48 0
2321 -49 -48 0
-2311 0
-2312 0
-2313 0
-2314 0
-2315 0
-2316 0
-2317 0
-2318 0
-2319 0
-2320 0
-2321 0
1 -62 0
-62 -61 0
85 -84 0
-2322 85 0
-2322 -84 0
2322 -85 84 0
2322 -83 0
-2323 2322 0
-2323 -83 0
2323 -2322 83 0
2323 -82 0
-2324 2323 0
-2324 -82 0
2324 -2323 82 0
2324 -81 0
-2325 2324 0
-2325 -81 0
2325 -2324 81 0
2325 -80 0
-2326 2325 0
-2326 -80 0
2326 -2325 80 0
2326 -79 0
-2327 2326 0
-2327 -79 0
2327 -2326 79 0
2327 -78 0
-2328 2327 0
-2328 -78 0
2328 -2327 78 0
2328 -77 0
-2329 2328 0
-2329 -77 0
2329 -2328 77 0
2329 -76 0
-2330 2329 0
-2330 -76 0
2330 -2329 76 0
2330 -75 0
-2331 2330 0
-2331 -75 0
2331 -2330 75 0
2331 -74 0
-2332 2331 0
-2332 -74 0
2332 -2331 74 0
2332 -73 0
-2333 2332 0
-2333 -73 0
2333 -2332 73 0
2333 -72 0
-2334 2333 0
-2334 -72 0
2334 -2333 72 0
2334 -71 0
-2335 2334 0
-2335 -71 0
2335 -2334 71 0
2335 -70 0
-2336 2335 0
-2336 -70 0
2336 -2335 70 0
2336 -69 0
-2337 2336 0
-2337 -69 0
2337 -2336 69 0
2337 -68 0
-2338 2337 0
-2338 -68 0
2338 -2337 68 0
2338 -67 0
-2339 2338 0
-2339 -67 0
2339 -2338 67 0
2339 -66 0
-2340 2339 0
-2340 -66 0
2340 -2339 66 0
2340 -65 0
-2341 2340 0
-2341 -65 0
2341 -2340 65 0
2341 -64 0
-2342 2341 0
-2342 -64 0
2342 -2341 64 0
2342 -63 0
-2343 2342 0
-2343 -63 0
2343 -2342 63 0
-2344 40 0
-2344 38 0
2344 -40 -38 0
-2345 41 0
-2345 39 0
2345 -41 -39 0
-2346 42 0
-2346 40 0
2346 -42 -40 0
-2347 43 0
-2347 41 0
2347 -43 -41 0
-2348 44 0
-2348 42 0
2348 -44 -42 0
-2349 45 0
-2349 43 0
2349 -45 -43 0
-2350 46 0
-2350 44 0
2350 -46 -44 0
-2351 47 0
-2351 45 0
2351 -47 -45 0
-2352 48 0
-2352 46 0
2352 -48 -46 0
-2353 49 0
-2353 47 0
2353 -49 -47 0
-2344 0
-2345 0
-2346 0
-2347 0
-2348 0
-2349 0
-2350 0
-2351 0
-2352 0
-2353 0
1 -120 0
-120 -119 0
-2354 -120 0
-2354 -119 0
2354 120 119 0
2354 -118 0
-2355 2354 0
-2355 -118 0
2355 -2354 118 0
2355 -141 0
-2356 2355 0
-2356 -141 0
2356 -2355 141 0
2356 -140 0
-2357 2356 0
-2357 -140 0
2357 -2356 140 0
2357 -139 0
-2358 2357 0
-2358 -139 0
2358 -2357 139 0
2358 -138 0
-2359 2358 0
-2359 -138 0
2359 -2358 138 0
2359 -137 0
-2360 2359 0
-2360 -137 0
2360 -2359 137 0
2360 -136 0
-2361 2360 0
-2361 -136 0
2361 -2360 136 0
2361 -135 0
-2362 2361 0
-2362 -135 0
2362 -2361 135 0
2362 -134 0
-2363 2362 0
-2363 -134 0
2363 -2362 134 0
2363 -133 0
-2364 2363 0
-2364 -133 0
2364 -2363 133 0
2364 -132 0
-2365 2364 0
-2365 -132 0
2365 -2364 132 0
2365 -131 0
-2366 2365 0
-2366 -131 0
2366 -2365 131 0
2366 -130 0
-2367 2366 0
-2367 -130 0
2367 -2366 130 0
2367 -129 0
-2368 2367 0
-2368 -129 0
2368 -2367 129 0
2368 -128 0
-2369 2368 0
-2369 -128 0
2369 -2368 128 0
2369 -127 0
-2370 2369 0
-2370 -127 0
2370 -2369 127 0
2370 -126 0
-2371 2370 0
-2371 -126 0
2371 -2370 126 0
2371 -125 0
-2372 2371 0
-2372 -125 0
2372 -2371 125 0
2372 -124 0
-2373 2372 0
-2373 -124 0
2373 -2372 124 0
2373 -123 0
-2374 2373 0
-2374 -123 0
2374 -2373 123 0
2374 -122 0
-2375 2374 0
-2375 -122 0
2375 -2374 122 0
2375 -121 0
-2376 2375 0
-2376 -121 0
2376 -2375 121 0
2376 -38 0
-2377 2376 0
-2377 -38 0
2377 -2376 38 0
2377 -48 0
-2378 2377 0
-2378 -48 0
2378 -2377 48 0
-2379 41 0
-2379 38 0
2379 -41 -38 0
-2380 42 0
-2380 39 0
2380 -42 -39 0
-2381 43 0
-2381 40 0
2381 -43 -40 0
-2382 44 0
-2382 41 0
2382 -44 -41 0
-2383 45 0
-2383 42 0
2383 -45 -42 0
-2384 46 0
-2384 43 0
2384 -46 -43 0
-2385 47 0
-2385 44 0
2385 -47 -44 0
-2386 48 0
-2386 45 0
2386 -48 -45 0
-2387 49 0
-2387 46 0
2387 -49 -46 0
-2311 0
-2379 0
-2380 0
-2381 0
-2382 0
-2383 0
-2384 0
-2385 0
-2386 0
-2387 0
-2320 0
1 -179 0
-179 -178 0
-2388 -179 0
-2388 -178 0
2388 179 178 0
2388 -177 0
-2389 2388 0
-2389 -177 0
2389 -2388 177 0
2389 -176 0
-2390 2389 0
-2390 -176 0
2390 -2389 176 0
2390 -199 0
-2391 2390 0
-2391 -199 0
2391 -2390 199 0
2391 -198 0
-2392 2391 0
-2392 -198 0
2392 -2391 198 0
2392 -197 0
-2393 2392 0
-2393 -197 0
2393 -2392 197 0
2393 -196 0
-2394 2393 0
-2394 -196 0
2394 -2393 196 0
2394 -195 0
-2395 2394 0
-2395 -195 0
2395 -2394 195 0
2395 -194 0
-2396 2395 0
-2396 -194 0
2396 -2395 194 0
2396 -193 0
-2397 2396 0
-2397 -193 0
2397 -2396 193 0
2397 -192 0
-2398 2397 0
-2398 -192 0
2398 -2397 192 0
2398 -191 0
-2399 2398 0
-2399 -191 0
2399 -2398 191 0
2399 -190 0
-2400 2399 0
-2400 -190 0
2400 -2399 190 0
2400 -189 0
-2401 2400 0
-2401 -189 0
2401 -2400 189 0
2401 -188 0
-2402 2401 0
-2402 -188 0
2402 -2401 188 0
2402 -187 0
-2403 2402 0
-2403 -187 0
2403 -2402 187 0
2403 -186 0
-2404 2403 0
-2404 -186 0
2404 -2403 186 0
2404 -185 0
-2405 2404 0
-2405 -185 0
2405 -2404 185 0
2405 -184 0
-2406 2405 0
-2406 -184 0
2406 -2405 184 0
2406 -183 0
-2407 2406 0
-2407 -183 0
2407 -2406 183 0
2407 -182 0
-2408 2407 0
-2408 -182 0
2408 -2407 182 0
2408 -181 0
-2409 2408 0
-2409 -181 0
2409 -2408 181 0
2409 -180 0
-2410 2409 0
-2410 -180 0
2410 -2409 180 0
-2411 42 0
-2411 38 0
2411 -42 -38 0
-2412 43 0
-2412 39 0
2412 -43 -39 0
-2413 44 0
-2413 40 0
2413 -44 -40 0
-2414 45 0
-2414 41 0
2414 -45 -41 0
-2415 46 0
-2415 42 0
2415 -46 -42 0
-2416 47 0
-2416 43 0
2416 -47 -43 0
-2417 48 0
-2417 44 0
2417 -48 -44 0
-2418 49 0
-2418 45 0
2418 -49 -45 0
-2344 0
-2411 0
-2412 0
-2413 0
-2414 0
-2415 0
-2416 0
-2417 0
-2418 0
-2352 0
1 -235 0
-235 -234 0
-2419 -235 0
-2419 -234 0
2419 235 234 0
2419 -233 0
-2420 2419 0
-2420 -233 0
2420 -2419 233 0
2420 -232 0
-2421 2420 0
-2421 -232 0
2421 -2420 232 0
2421 -231 0
-2422 2421 0
-2422 -231 0
2422 -2421 231 0
2422 -254 0
-2423 2422 0
-2423 -254 0
2423 -2422 254 0
2423 -253 0
-2424 2423 0
-2424 -253 0
2424 -2423 253 0
2424 -252 0
-2425 2424 0
-2425 -252 0
2425 -2424 252 0
2425 -251 0
-2426 2425 0
-2426 -251 0
2426 -2425 251 0
2426 -250 0
-2427 2426 0
-2427 -250 0
2427 -2426 250 0
2427 -249 0
-2428 2427 0
-2428 -249 0
2428 -2427 249 0
2428 -248 0
-2429 2428 0
-2429 -248 0
2429 -2428 248 0
2429 -247 0
-2430 2429 0
-2430 -247 0
2430 -2429 247 0
2430 -246 0
-2431 2430 0
-2431 -246 0
2431 -2430 246 0
2431 -245 0
-2432 2431 0
-2432 -245 0
2432 -2431 245 0
2432 -244 0
-2433 2432 0
-2433 -244 0
2433 -2432 244 0
2433 -243 0
-2434 2433 0
-2434 -243 0
2434 -2433 243 0
2434 -242 0
-2435 2434 0
-2435 -242 0
2435 -2434 242 0
2435 -241 0
-2436 2435 0
-2436 -241 0
2436 -2435 241 0
2436 -240 0
-2437 2436 0
-2437 -240 0
2437 -2436 240 0
2437 -239 0
-2438 2437 0
-2438 -239 0
2438 -2437 239 0
2438 -238 0
-2439 2438 0
-2439 -238 0
2439 -2438 238 0
2439 -237 0
-2440 2439 0
-2440 -237 0
2440 -2439 237 0
2440 -236 0
-2441 2440 0
-2441 -236 0
2441 -2440 236 0
2441 -39 0
-2442 2441 0
-2442 -39 0
2442 -2441 39 0
2442 -47 0
-2443 2442 0
-2443 -47 0
2443 -2442 47 0
-2444 43 0
-2444 38 0
2444 -43 -38 0
-2445 44 0
-2445 39 0
2445 -44 -39 0
-2446 45 0
-2446 40 0
2446 -45 -40 0
-2447 46 0
-2447 41 0
2447 -46 -41 0
-2448 47 0
-2448 42 0
2448 -47 -42 0
-2449 48 0
-2449 43 0
2449 -48 -43 0
-2450 49 0
-2450 44 0
2450 -49 -44 0
-2379 0
-2312 0
-2444 0
-2445 0
-2446 0
-2447 0
-2448 0
-2449 0
-2450 0
-2386 0
-2319 0
1 -292 0
-292 -291 0
-2451 -292 0
-2451 -291 0
2451 292 291 0
2451 -290 0
-2452 2451 0
-2452 -290 0
2452 -2451 290 0
2452 -289 0
-2453 2452 0
-2453 -289 0
2453 -2452 289 0
2453 -288 0
-2454 2453 0
-2454 -288 0
2454 -2453 288 0
2454 -287 0
-2455 2454 0
-2455 -287 0
2455 -2454 287 0
2455 -310 0
-2456 2455 0
-2456 -310 0
2456 -2455 310 0
2456 -309 0
-2457 2456 0
-2457 -309 0
2457 -2456 309 0
2457 -308 0
-2458 2457 0
-2458 -308 0
2458 -2457 308 0
2458 -307 0
-2459 2458 0
-2459 -307 0
2459 -2458 307 0
2459 -306 0
-2460 2459 0
-2460 -306 0
2460 -2459 306 0
2460 -305 0
-2461 2460 0
-2461 -305 0
2461 -2460 305 0
2461 -304 0
-2462 2461 0
-2462 -304 0
2462 -2461 304 0
2462 -303 0
-2463 2462 0
-2463 -303 0
2463 -2462 303 0
2463 -302 0
-2464 2463 0
-2464 -302 0
2464 -2463 302 0
2464 -301 0
-2465 2464 0
-2465 -301 0
2465 -2464 301 0
2465 -300 0
-2466 2465 0
-2466 -300 0
2466 -2465 300 0
2466 -299 0
-2467 2466 0
-2467 -299 0
2467 -2466 299 0
2467 -298 0
-2468 2467 0
-2468 -298 0
2468 -2467 298 0
2468 -297 0
-2469 2468 0
-2469 -297 0
2469 -2468 297 0
2469 -296 0
-2470 2469 0
-2470 -296 0
2470 -2469 296 0
2470 -295 0
-2471 2470 0
-2471 -295 0
2471 -2470 295 0
2471 -294 0
-2472 2471 0
-2472 -294 0
2472 -2471 294 0
2472 -293 0
-2473 2472 0
-2473 -293 0
2473 -2472 293 0
-2474 44 0
-2474 38 0
2474 -44 -38 0
-2475 45 0
-2475 39 0
2475 -45 -39 0
-2476 46 0
-2476 40 0
2476 -46 -40 0
-2477 47 0
-2477 41 0
2477 -47 -41 0
-2478 48 0
-2478 42 0
2478 -48 -42 0
-2479 49 0
-2479 43 0
2479 -49 -43 0
-2411 0
-2345 0
-2474 0
-2475 0
-2476 0
-2477 0
-2478 0
-2479 0
-2417 0
-2351 0
1 -346 0
-346 -345 0
-2480 -346 0
-2480 -345 0
2480 346 345 0
2480 -344 0
-2481 2480 0
-2481 -344 0
2481 -2480 344 0
2481 -343 0
-2482 2481 0
-2482 -343 0
2482 -2481 343 0
2482 -342 0
-2483 2482 0
-2483 -342 0
2483 -2482 342 0
2483 -341 0
-2484 2483 0
-2484 -341 0
2484 -2483 341 0
2484 -340 0
-2485 2484 0
-2485 -340 0
2485 -2484 340 0
2485 -363 0
-2486 2485 0
-2486 -363 0
2486 -2485 363 0
2486 -362 0
-2487 2486 0
-2487 -362 0
2487 -2486 362 0
2487 -361 0
-2488 2487 0
-2488 -361 0
2488 -2487 361 0
2488 -360 0
-2489 2488 0
-2489 -360 0
2489 -2488 360 0
2489 -359 0
-2490 2489 0
-2490 -359 0
2490 -2489 359 0
2490 -358 0
-2491 2490 0
-2491 -358 0
2491 -2490 358 0
2491 -357 0
-2492 2491 0
-2492 -357 0
2492 -2491 357 0
2492 -356 0
-2493 2492 0
-2493 -356 0
2493 -2492 356 0
2493 -355 0
-2494 2493 0
-2494 -355 0
2494 -2493 355 0
2494 -354 0
-2495 2494 0
-2495 -354 0
2495 -2494 354 0
2495 -353 0
-2496 2495 0
-2496 -353 0
2496 -2495 353 0
2496 -352 0
-2497 2496 0
-2497 -352 0
2497 -2496 352 0
2497 -351 0
-2498 2497 0
-2498 -351 0
2498 -2497 351 0
2498 -350 0
-2499 2498 0
-2499 -350 0
2499 -2498 350 0
2499 -349 0
-2500 2499 0
-2500 -349 0
2500 -2499 349 0
2500 -348 0
-2501 2500 0
-2501 -348 0
2501 -2500 348 0
2501 -347 0
-2502 2501 0
-2502 -347 0
2502 -2501 347 0
2502 -40 0
-2503 2502 0
-2503 -40 0
2503 -2502 40 0
2503 -46 0
-2504 2503 0
-2504 -46 0
2504 -2503 46 0
-2505 45 0
-2505 38 0
2505 -45 -38 0
-2506 46 0
-2506 39 0
2506 -46 -39 0
-2507 47 0
-2507 40 0
2507 -47 -40 0
-2508 48 0
-2508 41 0
2508 -48 -41 0
-2509 49 0
-2509 42 0
2509 -49 -42 0
-2444 0
-2380 0
-2313 0
-2505 0
-2506 0
-2507 0
-2508 0
-2509 0
-2449 0
-2385 0
-2318 0
1 -401 0
-401 -400 0
-2510 -401 0
-2510 -400 0
2510 401 400 0
2510 -399 0
-2511 2510 0
-2511 -399 0
2511 -2510 399 0
2511 -398 0
-2512 2511 0
-2512 -398 0
2512 -2511 398 0
2512 -397 0
-2513 2512 0
-2513 -397 0
2513 -2512 397 0
2513 -396 0
-2514 2513 0
-2514 -396 0
2514 -2513 396 0
2514 -395 0
-2515 2514 0
-2515 -395 0
2515 -2514 395 0
2515 -394 0
-2516 2515 0
-2516 -394 0
2516 -2515 394 0
2516 -417 0
-2517 2516 0
-2517 -417 0
2517 -2516 417 0
2517 -416 0
-2518 2517 0
-2518 -416 0
2518 -2517 416 0
2518 -415 0
-2519 2518 0
-2519 -415 0
2519 -2518 415 0
2519 -414 0
-2520 2519 0
-2520 -414 0
2520 -2519 414 0
2520 -413 0
-2521 2520 0
-2521 -413 0
2521 -2520 413 0
2521 -412 0
-2522 2521 0
-2522 -412 0
2522 -2521 412 0
2522 -411 0
-2523 2522 0
-2523 -411 0
2523 -2522 411 0
2523 -410 0
-2524 2523 0
-2524 -410 0
2524 -2523 410 0
2524 -409 0
-2525 2524 0
-2525 -409 0
2525 -2524 409 0
2525 -408 0
-2526 2525 0
-2526 -408 0
2526 -2525 408 0
2526 -407 0
-2527 2526 0
-2527 -407 0
2527 -2526 407 0
2527 -406 0
-2528 2527 0
-2528 -406 0
2528 -2527 406 0
2528 -405 0
-2529 2528 0
-2529 -405 0
2529 -2528 405 0
2529 -404 0
-2530 2529 0
-2530 -404 0
2530 -2529 404 0
2530 -403 0
-2531 2530 0
-2531 -403 0
2531 -2530 403 0
2531 -402 0
-2532 2531 0
-2532 -402 0
2532 -2531 402 0
-2533 46 0
-2533 38 0
2533 -46 -38 0
-2534 47 0
-2534 39 0
2534 -47 -39 0
-2535 48 0
-2535 40 0
2535 -48 -40 0
-2536 49 0
-2536 41 0
2536 -49 -41 0
-2474 0
-2412 0
-2346 0
-2533 0
-2534 0
-2535 0
-2536 0
-2478 0
-2416 0
-2350 0
1 -453 0
-453 -452 0
-2537 -453 0
-2537 -452 0
2537 453 452 0
2537 -451 0
-2538 2537 0
-2538 -451 0
2538 -2537 451 0
2538 -450 0
-2539 2538 0
-2539 -450 0
2539 -2538 450 0
2539 -449 0
-2540 2539 0
-2540 -449 0
2540 -2539 449 0
2540 -448 0
-2541 2540 0
-2541 -448 0
2541 -2540 448 0
2541 -447 0
-2542 2541 0
-2542 -447 0
2542 -2541 447 0
2542 -446 0
-2543 2542 0
-2543 -446 0
2543 -2542 446 0
2543 -445 0
-2544 2543 0
-2544 -445 0
2544 -2543 445 0
2544 -468 0
-2545 2544 0
-2545 -468 0
2545 -2544 468 0
2545 -467 0
-2546 2545 0
-2546 -467 0
2546 -2545 467 0
2546 -466 0
-2547 2546 0
-2547 -466 0
2547 -2546 466 0
2547 -465 0
-2548 2547 0
-2548 -465 0
2548 -2547 465 0
2548 -464 0
-2549 2548 0
-2549 -464 0
2549 -2548 464 0
2549 -463 0
-2550 2549 0
-2550 -463 0
2550 -2549 463 0
2550 -462 0
-2551 2550 0
-2551 -462 0
2551 -2550 462 0
2551 -461 0
-2552 2551 0
-2552 -461 0
2552 -2551 461 0
2552 -460 0
-2553 2552 0
-2553 -460 0
2553 -2552 460 0
2553 -459 0
-2554 2553 0
-2554 -459 0
2554 -2553 459 0
2554 -458 0
-2555 2554 0
-2555 -458 0
2555 -2554 458 0
2555 -457 0
-2556 2555 0
-2556 -457 0
2556 -2555 457 0
2556 -456 0
-2557 2556 0
-2557 -456 0
2557 -2556 456 0
2557 -455 0
-2558 2557 0
-2558 -455 0
2558 -2557 455 0
2558 -454 0
-2559 2558 0
-2559 -454 0
2559 -2558 454 0
2559 -41 0
-2560 2559 0
-2560 -41 0
2560 -2559 41 0
2560 -45 0
-2561 2560 0
-2561 -45 0
2561 -2560 45 0
-2562 47 0
-2562 38 0
2562 -47 -38 0
-2563 48 0
-2563 39 0
2563 -48 -39 0
-2564 49 0
-2564 40 0
2564 -49 -40 0
-2505 0
-2445 0
-2381 0
-2314 0
-2562 0
-2563 0
-2564 0
-2508 0
-2448 0
-2384 0
-2317 0
1 -506 0
-506 -505 0
-2565 -506 0
-2565 -505 0
2565 506 505 0
2565 -504 0
-2566 2565 0
-2566 -504 0
2566 -2565 504 0
2566 -503 0
-2567 2566 0
-2567 -503 0
2567 -2566 503 0
2567 -502 0
-2568 2567 0
-2568 -502 0
2568 -2567 502 0
2568 -501 0
-2569 2568 0
-2569 -501 0
2569 -2568 501 0
2569 -500 0
-2570 2569 0
-2570 -500 0
2570 -2569 500 0
2570 -499 0
-2571 2570 0
-2571 -499 0
2571 -2570 499 0
2571 -498 0
-2572 2571 0
-2572 -498 0
2572 -2571 498 0
2572 -497 0
-2573 2572 0
-2573 -497 0
2573 -2572 497 0
2573 -520 0
-2574 2573 0
-2574 -520 0
2574 -2573 520 0
2574 -519 0
-2575 2574 0
-2575 -519 0
2575 -2574 519 0
2575 -518 0
-2576 2575 0
-2576 -518 0
2576 -2575 518 0
2576 -517 0
-2577 2576 0
-2577 -517 0
2577 -2576 517 0
2577 -516 0
-2578 2577 0
-2578 -516 0
2578 -2577 516 0
2578 -515 0
-2579 2578 0
-2579 -515 0
2579 -2578 515 0
2579 -514 0
-2580 2579 0
-2580 -514 0
2580 -2579 514 0
2580 -513 0
-2581 2580 0
-2581 -513 0
2581 -2580 513 0
2581 -512 0
-2582 2581 0
-2582 -512 0
2582 -2581 512 0
2582 -511 0
-2583 2582 0
-2583 -511 0
2583 -2582 511 0
2583 -510 0
-2584 2583 0
-2584 -510 0
2584 -2583 510 0
2584 -509 0
-2585 2584 0
-2585 -509 0
2585 -2584 509 0
2585 -508 0
-2586 2585 0
-2586 -508 0
2586 -2585 508 0
2586 -507 0
-2587 2586 0
-2587 -507 0
2587 -2586 507 0
-2588 48 0
-2588 38 0
2588 -48 -38 0
-2589 49 0
-2589 39 0
2589 -49 -39 0
-2533 0
-2475 0
-2413 0
-2347 0
-2588 0
-2589 0
-2535 0
-2477 0
-2415 0
-2349 0
1 -556 0
-556 -555 0
-2590 -556 0
-2590 -555 0
2590 556 555 0
2590 -554 0
-2591 2590 0
-2591 -554 0
2591 -2590 554 0
2591 -553 0
-2592 2591 0
-2592 -553 0
2592 -2591 553 0
2592 -552 0
-2593 2592 0
-2593 -552 0
2593 -2592 552 0
2593 -551 0
-2594 2593 0
-2594 -551 0
2594 -2593 551 0
2594 -550 0
-2595 2594 0
-2595 -550 0
2595 -2594 550 0
2595 -549 0
-2596 2595 0
-2596 -549 0
2596 -2595 549 0
2596 -548 0
-2597 2596 0
-2597 -548 0
2597 -2596 548 0
2597 -547 0
-2598 2597 0
-2598 -547 0
2598 -2597 547 0
2598 -546 0
-2599 2598 0
-2599 -546 0
2599 -2598 546 0
2599 -569 0
-2600 2599 0
-2600 -569 0
2600 -2599 569 0
2600 -568 0
-2601 2600 0
-2601 -568 0
2601 -2600 568 0
2601 -567 0
-2602 2601 0
-2602 -567 0
2602 -2601 567 0
2602 -566 0
-2603 2602 0
-2603 -566 0
2603 -2602 566 0
2603 -565 0
-2604 2603 0
-2604 -565 0
2604 -2603 565 0
2604 -564 0
-2605 2604 0
-2605 -564 0
2605 -2604 564 0
2605 -563 0
-2606 2605 0
-2606 -563 0
2606 -2605 563 0
2606 -562 0
-2607 2606 0
-2607 -562 0
2607 -2606 562 0
2607 -561 0
-2608 2607 0
-2608 -561 0
2608 -2607 561 0
2608 -560 0
-2609 2608 0
-2609 -560 0
2609 -2608 560 0
2609 -559 0
-2610 2609 0
-2610 -559 0
2610 -2609 559 0
2610 -558 0
-2611 2610 0
-2611 -558 0
2611 -2610 558 0
2611 -557 0
-2612 2611 0
-2612 -557 0
2612 -2611 557 0
2612 -42 0
-2613 2612 0
-2613 -42 0
2613 -2612 42 0
2613 -44 0
-2614 2613 0
-2614 -44 0
2614 -2613 44 0
-2615 49 0
-2615 38 0
2615 -49 -38 0
-2562 0
-2506 0
-2446 0
-2382 0
-2315 0
-2615 0
-2563 0
-2507 0
-2447 0
-2383 0
-2316 0
1 -607 0
-607 -606 0
-2616 -607 0
-2616 -606 0
2616 607 606 0
2616 -605 0
-2617 2616 0
-2617 -605 0
2617 -2616 605 0
2617 -604 0
-2618 2617 0
-2618 -604 0
2618 -2617 604 0
2618 -603 0
-2619 2618 0
-2619 -603 0
2619 -2618 603 0
2619 -602 0
-2620 2619 0
-2620 -602 0
2620 -2619 602 0
2620 -601 0
-2621 2620 0
-2621 -601 0
2621 -2620 601 0
2621 -600 0
-2622 2621 0
-2622 -600 0
2622 -2621 600 0
2622 -599 0
-2623 2622 0
-2623 -599 0
2623 -2622 599 0
2623 -598 0
-2624 2623 0
-2624 -598 0
2624 -2623 598 0
2624 -597 0
-2625 2624 0
-2625 -597 0
2625 -2624 597 0
2625 -596 0
-2626 2625 0
-2626 -596 0
2626 -2625 596 0
2626 -619 0
-2627 2626 0
-2627 -619 0
2627 -2626 619 0
2627 -618 0
-2628 2627 0
-2628 -618 0
2628 -2627 618 0
2628 -617 0
-2629 2628 0
-2629 -617 0
2629 -2628 617 0
2629 -616 0
-2630 2629 0
-2630 -616 0
2630 -2629 616 0
2630 -615 0
-2631 2630 0
-2631 -615 0
2631 -2630 615 0
2631 -614 0
-2632 2631 0
-2632 -614 0
2632 -2631 614 0
2632 -613 0
-2633 2632 0
-2633 -613 0
2633 -2632 613 0
2633 -612 0
-2634 2633 0
-2634 -612 0
2634 -2633 612 0
2634 -611 0
-2635 2634 0
-2635 -611 0
2635 -2634 611 0
2635 -610 0
-2636 2635 0
-2636 -610 0
2636 -2635 610 0
2636 -609 0
-2637 2636 0
-2637 -609 0
2637 -2636 609 0
2637 -608 0
-2638 2637 0
-2638 -608 0
2638 -2637 608 0
-643 0
-654 0
-653 0
-652 0
-651 0
-650 0
-649 0
-648 0
-647 0
-646 0
-645 0
-644 0
-2588 0
-2534 0
-2476 0
-2414 0
-2348 0
-43 0
-2639 -2 0
-2639 -3 0
2639 2 3 0
-2640 -2 0
-2640 -50 0
2640 2 50 0
-2641 2639 0
-2641 -3 0
2641 -2639 3 0
-2642 3 0
-2642 -2639 0
2642 -3 2639 0
-2643 2640 0
-2643 -2642 0
2643 -2640 2642 0
-2644 3 0
-2644 -2640 0
2644 -3 2640 0
-2645 -50 0
-2645 -2644 0
2645 50 2644 0
-2646 3 0
-2646 50 0
2646 -3 -50 0
-2647 2641 0
-2647 -4 0
2647 -2641 4 0
-2648 4 0
-2648 -2641 0
2648 -4 2641 0
-2649 2643 0
-2649 -2648 0
2649 -2643 2648 0
-2650 4 0
-2650 -2643 0
2650 -4 2643 0
-2651 2645 0
-2651 -2650 0
2651 -2645 2650 0
-2652 4 0
-2652 -2645 0
2652 -4 2645 0
-2653 -2646 0
-2653 -2652 0
2653 2646 2652 0
-2654 4 0
-2654 2646 0
2654 -4 -2646 0
-2655 2647 0
-2655 -4 0
2655 -2647 4 0
-2656 4 0
-2656 -2647 0
2656 -4 2647 0
-2657 2649 0
-2657 -2656 0
2657 -2649 2656 0
-2658 4 0
-2658 -2649 0
2658 -4 2649 0
-2659 2651 0
-2659 -2658 0
2659 -2651 2658 0
-2660 4 0
-2660 -2651 0
2660 -4 2651 0
-2661 2653 0
-2661 -2660 0
2661 -2653 2660 0
-2662 4 0
-2662 -2653 0
2662 -4 2653 0
-2663 -2654 0
-2663 -2662 0
2663 2654 2662 0
-2664 4 0
-2664 2654 0
2664 -4 -2654 0
-2665 2655 0
-2665 -5 0
2665 -2655 5 0
-2666 5 0
-2666 -2655 0
2666 -5 2655 0
-2667 2657 0
-2667 -2666 0
2667 -2657 2666 0
-2668 5 0
-2668 -2657 0
2668 -5 2657 0
-2669 2659 0
-2669 -2668 0
2669 -2659 2668 0
-2670 5 0
-2670 -2659 0
2670 -5 2659 0
-2671 2661 0
-2671 -2670 0
2671 -2661 2670 0
-2672 5 0
-2672 -2661 0
2672 -5 2661 0
-2673 2663 0
-2673 -2672 0
2673 -2663 2672 0
-2674 5 0
-2674 -2663 0
2674 -5 2663 0
-2675 -2664 0
-2675 -2674 0
2675 2664 2674 0
-2676 5 0
-2676 2664 0
2676 -5 -2664 0
-2677 2665 0
-2677 -5 0
2677 -2665 5 0
-2678 5 0
-2678 -2665 0
2678 -5 2665 0
-2679 2667 0
-2679 -2678 0
2679 -2667 2678 0
-2680 5 0
-2680 -2667 0
2680 -5 2667 0
-2681 2669 0
-2681 -2680 0
2681 -2669 2680 0
-2682 5 0
-2682 -2669 0
2682 -5 2669 0
-2683 2671 0
-2683 -2682 0
2683 -2671 2682 0
-2684 5 0
-2684 -2671 0
2684 -5 2671 0
-2685 2673 0
-2685 -2684 0
2685 -2673 2684 0
-2686 5 0
-2686 -2673 0
2686 -5 2673 0
-2687 2675 0
-2687 -2686 0
2687 -2675 2686 0
-2688 5 0
-2688 -2675 0
2688 -5 2675 0
-2689 -2676 0
-2689 -2688 0
2689 2676 2688 0
-2690 2677 0
-2690 -6 0
2690 -2677 6 0
-2691 6 0
-2691 -2677 0
2691 -6 2677 0
-2692 2679 0
-2692 -2691 0
2692 -2679 2691 0
-2693 6 0
-2693 -2679 0
2693 -6 2679 0
-2694 2681 0
-2694 -2693 0
2694 -2681 2693 0
-2695 6 0
-2695 -2681 0
2695 -6 2681 0
-2696 2683 0
-2696 -2695 0
2696 -2683 2695 0
-2697 6 0
-2697 -2683 0
2697 -6 2683 0
-2698 2685 0
-2698 -2697 0
2698 -2685 2697 0
-2699 6 0
-2699 -2685 0
2699 -6 2685 0
-2700 2687 0
-2700 -2699 0
2700 -2687 2699 0
-2701 6 0
-2701 -2687 0
2701 -6 2687 0
-2702 2689 0
-2702 -2701 0
2702 -2689 2701 0
-2703 2690 0
-2703 -6 0
2703 -2690 6 0
-2704 6 0
-2704 -2690 0
2704 -6 2690 0
-2705 2692 0
-2705 -2704 0
2705 -2692 2704 0
-2706 6 0
-2706 -2692 0
2706 -6 2692 0
-2707 2694 0
-2707 -2706 0
2707 -2694 2706 0
-2708 6 0
-2708 -2694 0
2708 -6 2694 0
-2709 2696 0
-2709 -2708 0
2709 -2696 2708 0
-2710 6 0
-2710 -2696 0
2710 -6 2696 0
-2711 2698 0
-2711 -2710 0
2711 -2698 2710 0
-2712 6 0
-2712 -2698 0
2712 -6 2698 0
-2713 2700 0
-2713 -2712 0
2713 -2700 2712 0
-2714 6 0
-2714 -2700 0
2714 -6 2700 0
-2715 2702 0
-2715 -2714 0
2715 -2702 2714 0
-2716 2703 0
-2716 -7 0
2716 -2703 7 0
-2717 7 0
-2717 -2703 0
2717 -7 2703 0
-2718 2705 0
-2718 -2717 0
2718 -2705 2717 0
-2719 7 0
-2719 -2705 0
2719 -7 2705 0
-2720 2707 0
-2720 -2719 0
2720 -2707 2719 0
-2721 7 0
-2721 -2707 0
2721 -7 2707 0
-2722 2709 0
-2722 -2721 0
2722 -2709 2721 0
-2723 7 0
-2723 -2709 0
2723 -7 2709 0
-2724 2711 0
-2724 -2723 0
2724 -2711 2723 0
-2725 7 0
-2725 -2711 0
2725 -7 2711 0
-2726 2713 0
-2726 -2725 0
2726 -2713 2725 0
-2727 7 0
-2727 -2713 0
2727 -7 2713 0
-2728 2715 0
-2728 -2727 0
2728 -2715 2727 0
-2729 2716 0
-2729 -7 0
2729 -2716 7 0
-2730 7 0
-2730 -2716 0
2730 -7 2716 0
-2731 2718 0
-2731 -2730 0
2731 -2718 2730 0
-2732 7 0
-2732 -2718 0
2732 -7 2718 0
-2733 2720 0
-2733 -2732 0
2733 -2720 2732 0
-2734 7 0
-2734 -2720 0
2734 -7 2720 0
-2735 2722 0
-2735 -2734 0
2735 -2722 2734 0
-2736 7 0
-2736 -2722 0
2736 -7 2722 0
-2737 2724 0
-2737 -2736 0
2737 -2724 2736 0
-2738 7 0
-2738 -2724 0
2738 -7 2724 0
-2739 2726 0
-2739 -2738 0
2739 -2726 2738 0
-2740 7 0
-2740 -2726 0
2740 -7 2726 0
-2741 2728 0
-2741 -2740 0
2741 -2728 2740 0
-2742 2729 0
-2742 -8 0
2742 -2729 8 0
-2743 8 0
-2743 -2729 0
2743 -8 2729 0
-2744 2731 0
-2744 -2743 0
2744 -2731 2743 0
-2745 8 0
-2745 -2731 0
2745 -8 2731 0
-2746 2733 0
-2746 -2745 0
2746 -2733 2745 0
-2747 8 0
-2747 -2733 0
2747 -8 2733 0
-2748 2735 0
-2748 -2747 0
2748 -2735 2747 0
-2749 8 0
-2749 -2735 0
2749 -8 2735 0
-2750 2737 0
-2750 -2749 0
2750 -2737 2749 0
-2751 8 0
-2751 -2737 0
2751 -8 2737 0
-2752 2739 0
-2752 -2751 0
2752 -2739 2751 0
-2753 8 0
-2753 -2739 0
2753 -8 2739 0
-2754 2741 0
-2754 -2753 0
2754 -2741 2753 0
-2755 2742 0
-2755 -8 0
2755 -2742 8 0
-2756 8 0
-2756 -2742 0
2756 -8 2742 0
-2757 2744 0
-2757 -2756 0
2757 -2744 2756 0
-2758 8 0
-2758 -2744 0
2758 -8 2744 0
-2759 2746 0
-2759 -2758 0
2759 -2746 2758 0
-2760 8 0
-2760 -2746 0
2760 -8 2746 0
-2761 2748 0
-2761 -2760 0
2761 -2748 2760 0
-2762 8 0
-2762 -2748 0
2762 -8 2748 0
-2763 2750 0
-2763 -2762 0
2763 -2750 2762 0
-2764 8 0
-2764 -2750 0
2764 -8 2750 0
-2765 2752 0
-2765 -2764 0
2765 -2752 2764 0
-2766 8 0
-2766 -2752 0
2766 -8 2752 0
-2767 2754 0
-2767 -2766 0
2767 -2754 2766 0
-2768 2755 0
-2768 -9 0
2768 -2755 9 0
-2769 9 0
-2769 -2755 0
2769 -9 2755 0
-2770 2757 0
-2770 -2769 0
2770 -2757 2769 0
-2771 9 0
-2771 -2757 0
2771 -9 2757 0
-2772 2759 0
-2772 -2771 0
2772 -2759 2771 0
-2773 9 0
-2773 -2759 0
2773 -9 2759 0
-2774 2761 0
-2774 -2773 0
2774 -2761 2773 0
-2775 9 0
-2775 -2761 0
2775 -9 2761 0
-2776 2763 0
-2776 -2775 0
2776 -2763 2775 0
-2777 9 0
-2777 -2763 0
2777 -9 2763 0
-2778 2765 0
-2778 -2777 0
2778 -2765 2777 0
-2779 9 0
-2779 -2765 0
2779 -9 2765 0
-2780 2767 0
-2780 -2779 0
2780 -2767 2779 0
-2781 2768 0
-2781 -9 0
2781 -2768 9 0
-2782 9 0
-2782 -2768 0
2782 -9 2768 0
-2783 2770 0
-2783 -2782 0
2783 -2770 2782 0
-2784 9 0
-2784 -2770 0
2784 -9 2770 0
-2785 2772 0
-2785 -2784 0
2785 -2772 2784 0
-2786 9 0
-2786 -2772 0
2786 -9 2772 0
-2787 2774 0
-2787 -2786 0
2787 -2774 2786 0
-2788 9 0
-2788 -2774 0
2788 -9 2774 0
-2789 2776 0
-2789 -2788 0
2789 -2776 2788 0
-2790 9 0
-2790 -2776 0
2790 -9 2776 0
-2791 2778 0
-2791 -2790 0
2791 -2778 2790 0
-2792 9 0
-2792 -2778 0
2792 -9 2778 0
-2793 2780 0
-2793 -2792 0
2793 -2780 2792 0
-2794 2781 0
-2794 -10 0
2794 -2781 10 0
-2795 10 0
-2795 -2781 0
2795 -10 2781 0
-2796 2783 0
-2796 -2795 0
2796 -2783 2795 0
-2797 10 0
-2797 -2783 0
2797 -10 2783 0
-2798 2785 0
-2798 -2797 0
2798 -2785 2797 0
-2799 10 0
-2799 -2785 0
2799 -10 2785 0
-2800 2787 0
-2800 -2799 0
2800 -2787 2799 0
-2801 10 0
-2801 -2787 0
2801 -10 2787 0
-2802 2789 0
-2802 -2801 0
2802 -2789 2801 0
-2803 10 0
-2803 -2789 0
2803 -10 2789 0
-2804 2791 0
-2804 -2803 0
2804 -2791 2803 0
-2805 10 0
-2805 -2791 0
2805 -10 2791 0
-2806 2793 0
-2806 -2805 0
2806 -2793 2805 0
-2807 2794 0
-2807 -10 0
2807 -2794 10 0
-2808 10 0
-2808 -2794 0
2808 -10 2794 0
-2809 2796 0
-2809 -2808 0
2809 -2796 2808 0
-2810 10 0
-2810 -2796 0
2810 -10 2796 0
-2811 2798 0
-2811 -2810 0
2811 -2798 2810 0
-2812 10 0
-2812 -2798 0
2812 -10 2798 0
-2813 2800 0
-2813 -2812 0
2813 -2800 2812 0
-2814 10 0
-2814 -2800 0
2814 -10 2800 0
-2815 2802 0
-2815 -2814 0
2815 -2802 2814 0
-2816 10 0
-2816 -2802 0
2816 -10 2802 0
-2817 2804 0
-2817 -2816 0
2817 -2804 2816 0
-2818 10 0
-2818 -2804 0
2818 -10 2804 0
-2819 2806 0
-2819 -2818 0
2819 -2806 2818 0
-2820 2807 0
-2820 -11 0
2820 -2807 11 0
-2821 11 0
-2821 -2807 0
2821 -11 2807 0
-2822 2809 0
-2822 -2821 0
2822 -2809 2821 0
-2823 11 0
-2823 -2809 0
2823 -11 2809 0
-2824 2811 0
-2824 -2823 0
2824 -2811 2823 0
-2825 11 0
-2825 -2811 0
2825 -11 2811 0
-2826 2813 0
-2826 -2825 0
2826 -2813 2825 0
-2827 11 0
-2827 -2813 0
2827 -11 2813 0
-2828 2815 0
-2828 -2827 0
2828 -2815 2827 0
-2829 11 0
-2829 -2815 0
2829 -11 2815 0
-2830 2817 0
-2830 -2829 0
2830 -2817 2829 0
-2831 11 0
-2831 -2817 0
2831 -11 2817 0
-2832 2819 0
-2832 -2831 0
2832 -2819 2831 0
-2833 2820 0
-2833 -11 0
2833 -2820 11 0
-2834 11 0
-2834 -2820 0
2834 -11 2820 0
-2835 2822 0
-2835 -2834 0
2835 -2822 2834 0
-2836 11 0
-2836 -2822 0
2836 -11 2822 0
-2837 2824 0
-2837 -2836 0
2837 -2824 2836 0
-2838 11 0
-2838 -2824 0
2838 -11 2824 0
-2839 2826 0
-2839 -2838 0
2839 -2826 2838 0
-2840 11 0
-2840 -2826 0
2840 -11 2826 0
-2841 2828 0
-2841 -2840 0
2841 -2828 2840 0
-2842 11 0
-2842 -2828 0
2842 -11 2828 0
-2843 2830 0
-2843 -2842 0
2843 -2830 2842 0
-2844 11 0
-2844 -2830 0
2844 -11 2830 0
-2845 2832 0
-2845 -2844 0
2845 -2832 2844 0
-2846 2833 0
-2846 -12 0
2846 -2833 12 0
-2847 12 0
-2847 -2833 0
2847 -12 2833 0
-2848 2835 0
-2848 -2847 0
2848 -2835 2847 0
-2849 12 0
-2849 -2835 0
2849 -12 2835 0
-2850 2837 0
-2850 -2849 0
2850 -2837 2849 0
-2851 12 0
-2851 -2837 0
2851 -12 2837 0
-2852 2839 0
-2852 -2851 0
2852 -2839 2851 0
-2853 12 0
-2853 -2839 0
2853 -12 2839 0
-2854 2841 0
-2854 -2853 0
2854 -2841 2853 0
-2855 12 0
-2855 -2841 0
2855 -12 2841 0
-2856 2843 0
-2856 -2855 0
2856 -2843 2855 0
-2857 12 0
-2857 -2843 0
2857 -12 2843 0
-2858 2845 0
-2858 -2857 0
2858 -2845 2857 0
-2859 2846 0
-2859 -12 0
2859 -2846 12 0
-2860 12 0
-2860 -2846 0
2860 -12 2846 0
-2861 2848 0
-2861 -2860 0
2861 -2848 2860 0
-2862 12 0
-2862 -2848 0
2862 -12 2848 0
-2863 2850 0
-2863 -2862 0
2863 -2850 2862 0
-2864 12 0
-2864 -2850 0
2864 -12 2850 0
-2865 2852 0
-2865 -2864 0
2865 -2852 2864 0
-2866 12 0
-2866 -2852 0
2866 -12 2852 0
-2867 2854 0
-2867 -2866 0
2867 -2854 2866 0
-2868 12 0
-2868 -2854 0
2868 -12 2854 0
-2869 2856 0
-2869 -2868 0
2869 -2856 2868 0
-2870 12 0
-2870 -2856 0
2870 -12 2856 0
-2871 2858 0
-2871 -2870 0
2871 -2858 2870 0
-2872 2859 0
-2872 -13 0
2872 -2859 13 0
-2873 13 0
-2873 -2859 0
2873 -13 2859 0
-2874 2861 0
-2874 -2873 0
2874 -2861 2873 0
-2875 13 0
-2875 -2861 0
2875 -13 2861 0
-2876 2863 0
-2876 -2875 0
2876 -2863 2875 0
-2877 13 0
-2877 -2863 0
2877 -13 2863 0
-2878 2865 0
-2878 -2877 0
2878 -2865 2877 0
-2879 13 0
-2879 -2865 0
2879 -13 2865 0
-2880 2867 0
-2880 -2879 0
2880 -2867 2879 0
-2881 13 0
-2881 -2867 0
2881 -13 2867 0
-2882 2869 0
-2882 -2881 0
2882 -2869 2881 0
-2883 13 0
-2883 -2869 0
2883 -13 2869 0
-2884 2871 0
-2884 -2883 0
2884 -2871 2883 0
-2885 2872 0
-2885 -14 0
2885 -2872 14 0
-2886 14 0
-2886 -2872 0
2886 -14 2872 0
-2887 2874 0
-2887 -2886 0
2887 -2874 2886 0
-2888 14 0
-2888 -2874 0
2888 -14 2874 0
-2889 2876 0
-2889 -2888 0
2889 -2876 2888 0
-2890 14 0
-2890 -2876 0
2890 -14 2876 0
-2891 2878 0
-2891 -2890 0
2891 -2878 2890 0
-2892 14 0
-2892 -2878 0
2892 -14 2878 0
-2893 2880 0
-2893 -2892 0
2893 -2880 2892 0
-2894 14 0
-2894 -2880 0
2894 -14 2880 0
-2895 2882 0
-2895 -2894 0
2895 -2882 2894 0
-2896 14 0
-2896 -2882 0
2896 -14 2882 0
-2897 2884 0
-2897 -2896 0
2897 -2884 2896 0
-2898 2885 0
-2898 -15 0
2898 -2885 15 0
-2899 15 0
-2899 -2885 0
2899 -15 2885 0
-2900 2887 0
-2900 -2899 0
2900 -2887 2899 0
-2901 15 0
-2901 -2887 0
2901 -15 2887 0
-2902 2889 0
-2902 -2901 0
2902 -2889 2901 0
-2903 15 0
-2903 -2889 0
2903 -15 2889 0
-2904 2891 0
-2904 -2903 0
2904 -2891 2903 0
-2905 15 0
-2905 -2891 0
2905 -15 2891 0
-2906 2893 0
-2906 -2905 0
2906 -2893 2905 0
-2907 15 0
-2907 -2893 0
2907 -15 2893 0
-2908 2895 0
-2908 -2907 0
2908 -2895 2907 0
-2909 15 0
-2909 -2895 0
2909 -15 2895 0
-2910 2897 0
-2910 -2909 0
2910 -2897 2909 0
-2911 2898 0
-2911 -16 0
2911 -2898 16 0
-2912 16 0
-2912 -2898 0
2912 -16 2898 0
-2913 2900 0
-2913 -2912 0
2913 -2900 2912 0
-2914 16 0
-2914 -2900 0
2914 -16 2900 0
-2915 2902 0
-2915 -2914 0
2915 -2902 2914 0
-2916 16 0
-2916 -2902 0
2916 -16 2902 0
-2917 2904 0
-2917 -2916 0
2917 -2904 2916 0
-2918 16 0
-2918 -2904 0
2918 -16 2904 0
-2919 2906 0
-2919 -2918 0
2919 -2906 2918 0
-2920 16 0
-2920 -2906 0
2920 -16 2906 0
-2921 2908 0
-2921 -2920 0
2921 -2908 2920 0
-2922 16 0
-2922 -2908 0
2922 -16 2908 0
-2923 2910 0
-2923 -2922 0
2923 -2910 2922 0
-2924 2911 0
-2924 -17 0
2924 -2911 17 0
-2925 17 0
-2925 -2911 0
2925 -17 2911 0
-2926 2913 0
-2926 -2925 0
2926 -2913 2925 0
-2927 17 0
-2927 -2913 0
2927 -17 2913 0
-2928 2915 0
-2928 -2927 0
2928 -2915 2927 0
-2929 17 0
-2929 -2915 0
2929 -17 2915 0
-2930 2917 0
-2930 -2929 0
2930 -2917 2929 0
-2931 17 0
-2931 -2917 0
2931 -17 2917 0
-2932 2919 0
-2932 -2931 0
2932 -2919 2931 0
-2933 17 0
-2933 -2919 0
2933 -17 2919 0
-2934 2921 0
-2934 -2933 0
2934 -2921 2933 0
-2935 17 0
-2935 -2921 0
2935 -17 2921 0
-2936 2923 0
-2936 -2935 0
2936 -2923 2935 0
-2937 2924 0
-2937 -18 0
2937 -2924 18 0
-2938 18 0
-2938 -2924 0
2938 -18 2924 0
-2939 2926 0
-2939 -2938 0
2939 -2926 2938 0
-2940 18 0
-2940 -2926 0
2940 -18 2926 0
-2941 2928 0
-2941 -2940 0
2941 -2928 2940 0
-2942 18 0
-2942 -2928 0
2942 -18 2928 0
-2943 2930 0
-2943 -2942 0
2943 -2930 2942 0
-2944 18 0
-2944 -2930 0
2944 -18 2930 0
-2945 2932 0
-2945 -2944 0
2945 -2932 2944 0
-2946 18 0
-2946 -2932 0
2946 -18 2932 0
-2947 2934 0
-2947 -2946 0
2947 -2934 2946 0
-2948 18 0
-2948 -2934 0
2948 -18 2934 0
-2949 2936 0
-2949 -2948 0
2949 -2936 2948 0
-2950 2937 0
-2950 -19 0
2950 -2937 19 0
-2951 19 0
-2951 -2937 0
2951 -19 2937 0
-2952 2939 0
-2952 -2951 0
2952 -2939 2951 0
-2953 19 0
-2953 -2939 0
2953 -19 2939 0
-2954 2941 0
-2954 -2953 0
2954 -2941 2953 0
-2955 19 0
-2955 -2941 0
2955 -19 2941 0
-2956 2943 0
-2956 -2955 0
2956 -2943 2955 0
-2957 19 0
-2957 -2943 0
2957 -19 2943 0
-2958 2945 0
-2958 -2957 0
2958 -2945 2957 0
-2959 19 0
-2959 -2945 0
2959 -19 2945 0
-2960 2947 0
-2960 -2959 0
2960 -2947 2959 0
-2961 19 0
-2961 -2947 0
2961 -19 2947 0
-2962 2949 0
-2962 -2961 0
2962 -2949 2961 0
-2963 2950 0
-2963 -20 0
2963 -2950 20 0
-2964 20 0
-2964 -2950 0
2964 -20 2950 0
-2965 2952 0
-2965 -2964 0
2965 -2952 2964 0
-2966 20 0
-2966 -2952 0
2966 -20 2952 0
-2967 2954 0
-2967 -2966 0
2967 -2954 2966 0
-2968 20 0
-2968 -2954 0
2968 -20 2954 0
-2969 2956 0
-2969 -2968 0
2969 -2956 2968 0
-2970 20 0
-2970 -2956 0
2970 -20 2956 0
-2971 2958 0
-2971 -2970 0
2971 -2958 2970 0
-2972 20 0
-2972 -2958 0
2972 -20 2958 0
-2973 2960 0
-2973 -2972 0
2973 -2960 2972 0
-2974 20 0
-2974 -2960 0
2974 -20 2960 0
-2975 2962 0
-2975 -2974 0
2975 -2962 2974 0
-2976 2963 0
-2976 -21 0
2976 -2963 21 0
-2977 21 0
-2977 -2963 0
2977 -21 2963 0
-2978 2965 0
-2978 -2977 0
2978 -2965 2977 0
-2979 21 0
-2979 -2965 0
2979 -21 2965 0
-2980 2967 0
-2980 -2979 0
2980 -2967 2979 0
-2981 21 0
-2981 -2967 0
2981 -21 2967 0
-2982 2969 0
-2982 -2981 0
2982 -2969 2981 0
-2983 21 0
-2983 -2969 0
2983 -21 2969 0
-2984 2971 0
-2984 -2983 0
2984 -2971 2983 0
-2985 21 0
-2985 -2971 0
2985 -21 2971 0
-2986 2973 0
-2986 -2985 0
2986 -2973 2985 0
-2987 21 0
-2987 -2973 0
2987 -21 2973 0
-2988 2975 0
-2988 -2987 0
2988 -2975 2987 0
-2989 2976 0
-2989 -22 0
2989 -2976 22 0
-2990 22 0
-2990 -2976 0
2990 -22 2976 0
-2991 2978 0
-2991 -2990 0
2991 -2978 2990 0
-2992 22 0
-2992 -2978 0
2992 -22 2978 0
-2993 2980 0
-2993 -2992 0
2993 -2980 2992 0
-2994 22 0
-2994 -2980 0
2994 -22 2980 0
-2995 2982 0
-2995 -2994 0
2995 -2982 2994 0
-2996 22 0
-2996 -2982 0
2996 -22 2982 0
-2997 2984 0
-2997 -2996 0
2997 -2984 2996 0
-2998 22 0
-2998 -2984 0
2998 -22 2984 0
-2999 2986 0
-2999 -2998 0
2999 -2986 2998 0
-3000 22 0
-3000 -2986 0
3000 -22 2986 0
-3001 2988 0
-3001 -3000 0
3001 -2988 3000 0
-3002 2989 0
-3002 -23 0
3002 -2989 23 0
-3003 23 0
-3003 -2989 0
3003 -23 2989 0
-3004 2991 0
-3004 -3003 0
3004 -2991 3003 0
-3005 23 0
-3005 -2991 0
3005 -23 2991 0
-3006 2993 0
-3006 -3005 0
3006 -2993 3005 0
-3007 23 0
-3007 -2993 0
3007 -23 2993 0
-3008 2995 0
-3008 -3007 0
3008 -2995 3007 0
-3009 23 0
-3009 -2995 0
3009 -23 2995 0
-3010 2997 0
-3010 -3009 0
3010 -2997 3009 0
-3011 23 0
-3011 -2997 0
3011 -23 2997 0
-3012 2999 0
-3012 -3011 0
3012 -2999 3011 0
-3013 23 0
-3013 -2999 0
3013 -23 2999 0
-3014 3001 0
-3014 -3013 0
3014 -3001 3013 0
-3015 3002 0
-3015 -24 0
3015 -3002 24 0
-3016 24 0
-3016 -3002 0
3016 -24 3002 0
-3017 3004 0
-3017 -3016 0
3017 -3004 3016 0
-3018 24 0
-3018 -3004 0
3018 -24 3004 0
-3019 3006 0
-3019 -3018 0
3019 -3006 3018 0
-3020 24 0
-3020 -3006 0
3020 -24 3006 0
-3021 3008 0
-3021 -3020 0
3021 -3008 3020 0
-3022 24 0
-3022 -3008 0
3022 -24 3008 0
-3023 3010 0
-3023 -3022 0
3023 -3010 3022 0
-3024 24 0
-3024 -3010 0
3024 -24 3010 0
-3025 3012 0
-3025 -3024 0
3025 -3012 3024 0
-3026 24 0
-3026 -3012 0
3026 -24 3012 0
-3027 3014 0
-3027 -3026 0
3027 -3014 3026 0
-3028 3015 0
-3028 -25 0
3028 -3015 25 0
-3029 25 0
-3029 -3015 0
3029 -25 3015 0
-3030 3017 0
-3030 -3029 0
3030 -3017 3029 0
-3031 25 0
-3031 -3017 0
3031 -25 3017 0
-3032 3019 0
-3032 -3031 0
3032 -3019 3031 0
-3033 25 0
-3033 -3019 0
3033 -25 3019 0
-3034 3021 0
-3034 -3033 0
3034 -3021 3033 0
-3035 25 0
-3035 -3021 0
3035 -25 3021 0
-3036 3023 0
-3036 -3035 0
3036 -3023 3035 0
-3037 25 0
-3037 -3023 0
3037 -25 3023 0
-3038 3025 0
-3038 -3037 0
3038 -3025 3037 0
-3039 25 0
-3039 -3025 0
3039 -25 3025 0
-3040 3027 0
-3040 -3039 0
3040 -3027 3039 0
-3041 3028 0
-3041 -26 0
3041 -3028 26 0
-3042 26 0
-3042 -3028 0
3042 -26 3028 0
-3043 3030 0
-3043 -3042 0
3043 -3030 3042 0
-3044 26 0
-3044 -3030 0
3044 -26 3030 0
-3045 3032 0
-3045 -3044 0
3045 -3032 3044 0
-3046 26 0
-3046 -3032 0
3046 -26 3032 0
-3047 3034 0
-3047 -3046 0
3047 -3034 3046 0
-3048 26 0
-3048 -3034 0
3048 -26 3034 0
-3049 3036 0
-3049 -3048 0
3049 -3036 3048 0
-3050 26 0
-3050 -3036 0
3050 -26 3036 0
-3051 3038 0
-3051 -3050 0
3051 -3038 3050 0
-3052 26 0
-3052 -3038 0
3052 -26 3038 0
-3053 3040 0
-3053 -3052 0
3053 -3040 3052 0
-3054 3041 0
-3054 -27 0
3054 -3041 27 0
-3055 27 0
-3055 -3041 0
3055 -27 3041 0
-3056 3043 0
-3056 -3055 0
3056 -3043 3055 0
-3057 27 0
-3057 -3043 0
3057 -27 3043 0
-3058 3045 0
-3058 -3057 0
3058 -3045 3057 0
-3059 27 0
-3059 -3045 0
3059 -27 3045 0
-3060 3047 0
-3060 -3059 0
3060 -3047 3059 0
-3061 27 0
-3061 -3047 0
3061 -27 3047 0
-3062 3049 0
-3062 -3061 0
3062 -3049 3061 0
-3063 27 0
-3063 -3049 0
3063 -27 3049 0
-3064 3051 0
-3064 -3063 0
3064 -3051 3063 0
-3065 27 0
-3065 -3051 0
3065 -27 3051 0
-3066 3053 0
-3066 -3065 0
3066 -3053 3065 0
-3067 3054 0
-3067 -28 0
3067 -3054 28 0
-3068 28 0
-3068 -3054 0
3068 -28 3054 0
-3069 3056 0
-3069 -3068 0
3069 -3056 3068 0
-3070 28 0
-3070 -3056 0
3070 -28 3056 0
-3071 3058 0
-3071 -3070 0
3071 -3058 3070 0
-3072 28 0
-3072 -3058 0
3072 -28 3058 0
-3073 3060 0
-3073 -3072 0
3073 -3060 3072 0
-3074 28 0
-3074 -3060 0
3074 -28 3060 0
-3075 3062 0
-3075 -3074 0
3075 -3062 3074 0
-3076 28 0
-3076 -3062 0
3076 -28 3062 0
-3077 3064 0
-3077 -3076 0
3077 -3064 3076 0
-3078 28 0
-3078 -3064 0
3078 -28 3064 0
-3079 3066 0
-3079 -3078 0
3079 -3066 3078 0
-3080 3067 0
-3080 -29 0
3080 -3067 29 0
-3081 29 0
-3081 -3067 0
3081 -29 3067 0
-3082 3069 0
-3082 -3081 0
3082 -3069 3081 0
-3083 29 0
-3083 -3069 0
3083 -29 3069 0
-3084 3071 0
-3084 -3083 0
3084 -3071 3083 0
-3085 29 0
-3085 -3071 0
3085 -29 3071 0
-3086 3073 0
-3086 -3085 0
3086 -3073 3085 0
-3087 29 0
-3087 -3073 0
3087 -29 3073 0
-3088 3075 0
-3088 -3087 0
3088 -3075 3087 0
-3089 29 0
-3089 -3075 0
3089 -29 3075 0
-3090 3077 0
-3090 -3089 0
3090 -3077 3089 0
-3091 29 0
-3091 -3077 0
3091 -29 3077 0
-3092 3079 0
-3092 -3091 0
3092 -3079 3091 0
-3093 3080 0
-3093 -30 0
3093 -3080 30 0
-3094 30 0
-3094 -3080 0
3094 -30 3080 0
-3095 3082 0
-3095 -3094 0
3095 -3082 3094 0
-3096 30 0
-3096 -3082 0
3096 -30 3082 0
-3097 3084 0
-3097 -3096 0
3097 -3084 3096 0
-3098 30 0
-3098 -3084 0
3098 -30 3084 0
-3099 3086 0
-3099 -3098 0
3099 -3086 3098 0
-3100 30 0
-3100 -3086 0
3100 -30 3086 0
-3101 3088 0
-3101 -3100 0
3101 -3088 3100 0
-3102 30 0
-3102 -3088 0
3102 -30 3088 0
-3103 3090 0
-3103 -3102 0
3103 -3090 3102 0
-3104 30 0
-3104 -3090 0
3104 -30 3090 0
-3105 3092 0
-3105 -3104 0
3105 -3092 3104 0
-3106 3093 0
-3106 -31 0
3106 -3093 31 0
-3107 31 0
-3107 -3093 0
3107 -31 3093 0
-3108 3095 0
-3108 -3107 0
3108 -3095 3107 0
-3109 31 0
-3109 -3095 0
3109 -31 3095 0
-3110 3097 0
-3110 -3109 0
3110 -3097 3109 0
-3111 31 0
-3111 -3097 0
3111 -31 3097 0
-3112 3099 0
-3112 -3111 0
3112 -3099 3111 0
-3113 31 0
-3113 -3099 0
3113 -31 3099 0
-3114 3101 0
-3114 -3113 0
3114 -3101 3113 0
-3115 31 0
-3115 -3101 0
3115 -31 3101 0
-3116 3103 0
-3116 -3115 0
3116 -3103 3115 0
-3117 31 0
-3117 -3103 0
3117 -31 3103 0
-3118 3105 0
-3118 -3117 0
3118 -3105 3117 0
-3119 3106 0
-3119 -32 0
3119 -3106 32 0
-3120 32 0
-3120 -3106 0
3120 -32 3106 0
-3121 3108 0
-3121 -3120 0
3121 -3108 3120 0
-3122 32 0
-3122 -3108 0
3122 -32 3108 0
-3123 3110 0
-3123 -3122 0
3123 -3110 3122 0
-3124 32 0
-3124 -3110 0
3124 -32 3110 0
-3125 3112 0
-3125 -3124 0
3125 -3112 3124 0
-3126 32 0
-3126 -3112 0
3126 -32 3112 0
-3127 3114 0
-3127 -3126 0
3127 -3114 3126 0
-3128 32 0
-3128 -3114 0
3128 -32 3114 0
-3129 3116 0
-3129 -3128 0
3129 -3116 3128 0
-3130 32 0
-3130 -3116 0
3130 -32 3116 0
-3131 3118 0
-3131 -3130 0
3131 -3118 3130 0
-3132 3119 0
-3132 -33 0
3132 -3119 33 0
-3133 33 0
-3133 -3119 0
3133 -33 3119 0
-3134 3121 0
-3134 -3133 0
3134 -3121 3133 0
-3135 33 0
-3135 -3121 0
3135 -33 3121 0
-3136 3123 0
-3136 -3135 0
3136 -3123 3135 0
-3137 33 0
-3137 -3123 0
3137 -33 3123 0
-3138 3125 0
-3138 -3137 0
3138 -3125 3137 0
-3139 33 0
-3139 -3125 0
3139 -33 3125 0
-3140 3127 0
-3140 -3139 0
3140 -3127 3139 0
-3141 33 0
-3141 -3127 0
3141 -33 3127 0
-3142 3129 0
-3142 -3141 0
3142 -3129 3141 0
-3143 33 0
-3143 -3129 0
3143 -33 3129 0
-3144 3131 0
-3144 -3143 0
3144 -3131 3143 0
-3145 3132 0
-3145 -34 0
3145 -3132 34 0
-3146 34 0
-3146 -3132 0
3146 -34 3132 0
-3147 3134 0
-3147 -3146 0
3147 -3134 3146 0
-3148 34 0
-3148 -3134 0
3148 -34 3134 0
-3149 3136 0
-3149 -3148 0
3149 -3136 3148 0
-3150 34 0
-3150 -3136 0
3150 -34 3136 0
-3151 3138 0
-3151 -3150 0
3151 -3138 3150 0
-3152 34 0
-3152 -3138 0
3152 -34 3138 0
-3153 3140 0
-3153 -3152 0
3153 -3140 3152 0
-3154 34 0
-3154 -3140 0
3154 -34 3140 0
-3155 3142 0
-3155 -3154 0
3155 -3142 3154 0
-3156 34 0
-3156 -3142 0
3156 -34 3142 0
-3157 3144 0
-3157 -3156 0
3157 -3144 3156 0
-3158 3145 0
-3158 -35 0
3158 -3145 35 0
-3159 35 0
-3159 -3145 0
3159 -35 3145 0
-3160 3147 0
-3160 -3159 0
3160 -3147 3159 0
-3161 35 0
-3161 -3147 0
3161 -35 3147 0
-3162 3149 0
-3162 -3161 0
3162 -3149 3161 0
-3163 35 0
-3163 -3149 0
3163 -35 3149 0
-3164 3151 0
-3164 -3163 0
3164 -3151 3163 0
-3165 35 0
-3165 -3151 0
3165 -35 3151 0
-3166 3153 0
-3166 -3165 0
3166 -3153 3165 0
-3167 35 0
-3167 -3153 0
3167 -35 3153 0
-3168 3155 0
-3168 -3167 0
3168 -3155 3167 0
-3169 35 0
-3169 -3155 0
3169 -35 3155 0
-3170 3157 0
-3170 -3169 0
3170 -3157 3169 0
-3171 3158 0
-3171 -36 0
3171 -3158 36 0
-3172 36 0
-3172 -3158 0
3172 -36 3158 0
-3173 3160 0
-3173 -3172 0
3173 -3160 3172 0
-3174 36 0
-3174 -3160 0
3174 -36 3160 0
-3175 3162 0
-3175 -3174 0
3175 -3162 3174 0
-3176 36 0
-3176 -3162 0
3176 -36 3162 0
-3177 3164 0
-3177 -3176 0
3177 -3164 3176 0
-3178 36 0
-3178 -3164 0
3178 -36 3164 0
-3179 3166 0
-3179 -3178 0
3179 -3166 3178 0
-3180 36 0
-3180 -3166 0
3180 -36 3166 0
-3181 3168 0
-3181 -3180 0
3181 -3168 3180 0
-3182 36 0
-3182 -3168 0
3182 -36 3168 0
-3183 3170 0
-3183 -3182 0
3183 -3170 3182 0
-3184 3171 0
-3184 -37 0
3184 -3171 37 0
-3185 37 0
-3185 -3171 0
3185 -37 3171 0
-3186 3173 0
-3186 -3185 0
3186 -3173 3185 0
-3187 37 0
-3187 -3173 0
3187 -37 3173 0
-3188 3175 0
-3188 -3187 0
3188 -3175 3187 0
-3189 37 0
-3189 -3175 0
3189 -37 3175 0
-3190 3177 0
-3190 -3189 0
3190 -3177 3189 0
-3191 37 0
-3191 -3177 0
3191 -37 3177 0
-3192 3179 0
-3192 -3191 0
3192 -3179 3191 0
-3193 37 0
-3193 -3179 0
3193 -37 3179 0
-3194 3181 0
-3194 -3193 0
3194 -3181 3193 0
-3195 37 0
-3195 -3181 0
3195 -37 3181 0
-3196 3183 0
-3196 -3195 0
3196 -3183 3195 0
-3196 0
-3197 -14 0
-3197 -15 0
3197 14 15 0
-3198 3197 0
-3198 -16 0
3198 -3197 16 0
-3199 16 0
-3199 -3197 0
3199 -16 3197 0
-3200 -62 0
-3200 -3199 0
3200 62 3199 0
-3201 16 0
-3201 62 0
3201 -16 -62 0
-3202 3198 0
-3202 -17 0
3202 -3198 17 0
-3203 17 0
-3203 -3198 0
3203 -17 3198 0
-3204 3200 0
-3204 -3203 0
3204 -3200 3203 0
-3205 17 0
-3205 -3200 0
3205 -17 3200 0
-3206 -3201 0
-3206 -3205 0
3206 3201 3205 0
-3207 17 0
-3207 3201 0
3207 -17 -3201 0
-3208 3202 0
-3208 -18 0
3208 -3202 18 0
-3209 18 0
-3209 -3202 0
3209 -18 3202 0
-3210 3204 0
-3210 -3209 0
3210 -3204 3209 0
-3211 18 0
-3211 -3204 0
3211 -18 3204 0
-3212 3206 0
-3212 -3211 0
3212 -3206 3211 0
-3213 18 0
-3213 -3206 0
3213 -18 3206 0
-3214 -3207 0
-3214 -3213 0
3214 3207 3213 0
-3215 18 0
-3215 3207 0
3215 -18 -3207 0
-3216 3208 0
-3216 -19 0
3216 -3208 19 0
-3217 19 0
-3217 -3208 0
3217 -19 3208 0
-3218 3210 0
-3218 -3217 0
3218 -3210 3217 0
-3219 19 0
-3219 -3210 0
3219 -19 3210 0
-3220 3212 0
-3220 -3219 0
3220 -3212 3219 0
-3221 19 0
-3221 -3212 0
3221 -19 3212 0
-3222 3214 0
-3222 -3221 0
3222 -3214 3221 0
-3223 19 0
-3223 -3214 0
3223 -19 3214 0
-3224 -3215 0
-3224 -3223 0
3224 3215 3223 0
-3225 19 0
-3225 3215 0
3225 -19 -3215 0
-3226 3216 0
-3226 -20 0
3226 -3216 20 0
-3227 20 0
-3227 -3216 0
3227 -20 3216 0
-3228 3218 0
-3228 -3227 0
3228 -3218 3227 0
-3229 20 0
-3229 -3218 0
3229 -20 3218 0
-3230 3220 0
-3230 -3229 0
3230 -3220 3229 0
-3231 20 0
-3231 -3220 0
3231 -20 3220 0
-3232 3222 0
-3232 -3231 0
3232 -3222 3231 0
-3233 20 0
-3233 -3222 0
3233 -20 3222 0
-3234 3224 0
-3234 -3233 0
3234 -3224 3233 0
-3235 20 0
-3235 -3224 0
3235 -20 3224 0
-3236 -3225 0
-3236 -3235 0
3236 3225 3235 0
-3237 20 0
-3237 3225 0
3237 -20 -3225 0
-3238 3226 0
-3238 -21 0
3238 -3226 21 0
-3239 21 0
-3239 -3226 0
3239 -21 3226 0
-3240 3228 0
-3240 -3239 0
3240 -3228 3239 0
-3241 21 0
-3241 -3228 0
3241 -21 3228 0
-3242 3230 0
-3242 -3241 0
3242 -3230 3241 0
-3243 21 0
-3243 -3230 0
3243 -21 3230 0
-3244 3232 0
-3244 -3243 0
3244 -3232 3243 0
-3245 21 0
-3245 -3232 0
3245 -21 3232 0
-3246 3234 0
-3246 -3245 0
3246 -3234 3245 0
-3247 21 0
-3247 -3234 0
3247 -21 3234 0
-3248 3236 0
-3248 -3247 0
3248 -3236 3247 0
-3249 21 0
-3249 -3236 0
3249 -21 3236 0
-3250 -3237 0
-3250 -3249 0
3250 3237 3249 0
-3251 3238 0
-3251 -22 0
3251 -3238 22 0
-3252 22 0
-3252 -3238 0
3252 -22 3238 0
-3253 3240 0
-3253 -3252 0
3253 -3240 3252 0
-3254 22 0
-3254 -3240 0
3254 -22 3240 0
-3255 3242 0
-3255 -3254 0
3255 -3242 3254 0
-3256 22 0
-3256 -3242 0
3256 -22 3242 0
-3257 3244 0
-3257 -3256 0
3257 -3244 3256 0
-3258 22 0
-3258 -3244 0
3258 -22 3244 0
-3259 3246 0
-3259 -3258 0
3259 -3246 3258 0
-3260 22 0
-3260 -3246 0
3260 -22 3246 0
-3261 3248 0
-3261 -3260 0
3261 -3248 3260 0
-3262 22 0
-3262 -3248 0
3262 -22 3248 0
-3263 3250 0
-3263 -3262 0
3263 -3250 3262 0
-3264 3251 0
-3264 -23 0
3264 -3251 23 0
-3265 23 0
-3265 -3251 0
3265 -23 3251 0
-3266 3253 0
-3266 -3265 0
3266 -3253 3265 0
-3267 23 0
-3267 -3253 0
3267 -23 3253 0
-3268 3255 0
-3268 -3267 0
3268 -3255 3267 0
-3269 23 0
-3269 -3255 0
3269 -23 3255 0
-3270 3257 0
-3270 -3269 0
3270 -3257 3269 0
-3271 23 0
-3271 -3257 0
3271 -23 3257 0
-3272 3259 0
-3272 -3271 0
3272 -3259 3271 0
-3273 23 0
-3273 -3259 0
3273 -23 3259 0
-3274 3261 0
-3274 -3273 0
3274 -3261 3273 0
-3275 23 0
-3275 -3261 0
3275 -23 3261 0
-3276 3263 0
-3276 -3275 0
3276 -3263 3275 0
-3277 3264 0
-3277 -24 0
3277 -3264 24 0
-3278 24 0
-3278 -3264 0
3278 -24 3264 0
-3279 3266 0
-3279 -3278 0
3279 -3266 3278 0
-3280 24 0
-3280 -3266 0
3280 -24 3266 0
-3281 3268 0
-3281 -3280 0
3281 -3268 3280 0
-3282 24 0
-3282 -3268 0
3282 -24 3268 0
-3283 3270 0
-3283 -3282 0
3283 -3270 3282 0
-3284 24 0
-3284 -3270 0
3284 -24 3270 0
-3285 3272 0
-3285 -3284 0
3285 -3272 3284 0
-3286 24 0
-3286 -3272 0
3286 -24 3272 0
-3287 3274 0
-3287 -3286 0
3287 -3274 3286 0
-3288 24 0
-3288 -3274 0
3288 -24 3274 0
-3289 3276 0
-3289 -3288 0
3289 -3276 3288 0
-3290 3277 0
-3290 -25 0
3290 -3277 25 0
-3291 25 0
-3291 -3277 0
3291 -25 3277 0
-3292 3279 0
-3292 -3291 0
3292 -3279 3291 0
-3293 25 0
-3293 -3279 0
3293 -25 3279 0
-3294 3281 0
-3294 -3293 0
3294 -3281 3293 0
-3295 25 0
-3295 -3281 0
3295 -25 3281 0
-3296 3283 0
-3296 -3295 0
3296 -3283 3295 0
-3297 25 0
-3297 -3283 0
3297 -25 3283 0
-3298 3285 0
-3298 -3297 0
3298 -3285 3297 0
-3299 25 0
-3299 -3285 0
3299 -25 3285 0
-3300 3287 0
-3300 -3299 0
3300 -3287 3299 0
-3301 25 0
-3301 -3287 0
3301 -25 3287 0
-3302 3289 0
-3302 -3301 0
3302 -3289 3301 0
-3303 3290 0
-3303 -26 0
3303 -3290 26 0
-3304 26 0
-3304 -3290 0
3304 -26 3290 0
-3305 3292 0
-3305 -3304 0
3305 -3292 3304 0
-3306 26 0
-3306 -3292 0
3306 -26 3292 0
-3307 3294 0
-3307 -3306 0
3307 -3294 3306 0
-3308 26 0
-3308 -3294 0
3308 -26 3294 0
-3309 3296 0
-3309 -3308 0
3309 -3296 3308 0
-3310 26 0
-3310 -3296 0
3310 -26 3296 0
-3311 3298 0
-3311 -3310 0
3311 -3298 3310 0
-3312 26 0
-3312 -3298 0
3312 -26 3298 0
-3313 3300 0
-3313 -3312 0
3313 -3300 3312 0
-3314 26 0
-3314 -3300 0
3314 -26 3300 0
-3315 3302 0
-3315 -3314 0
3315 -3302 3314 0
-3316 3303 0
-3316 -27 0
3316 -3303 27 0
-3317 27 0
-3317 -3303 0
3317 -27 3303 0
-3318 3305 0
-3318 -3317 0
3318 -3305 3317 0
-3319 27 0
-3319 -3305 0
3319 -27 3305 0
-3320 3307 0
-3320 -3319 0
3320 -3307 3319 0
-3321 27 0
-3321 -3307 0
3321 -27 3307 0
-3322 3309 0
-3322 -3321 0
3322 -3309 3321 0
-3323 27 0
-3323 -3309 0
3323 -27 3309 0
-3324 3311 0
-3324 -3323 0
3324 -3311 3323 0
-3325 27 0
-3325 -3311 0
3325 -27 3311 0
-3326 3313 0
-3326 -3325 0
3326 -3313 3325 0
-3327 27 0
-3327 -3313 0
3327 -27 3313 0
-3328 3315 0
-3328 -3327 0
3328 -3315 3327 0
-3329 3316 0
-3329 -28 0
3329 -3316 28 0
-3330 28 0
-3330 -3316 0
3330 -28 3316 0
-3331 3318 0
-3331 -3330 0
3331 -3318 3330 0
-3332 28 0
-3332 -3318 0
3332 -28 3318 0
-3333 3320 0
-3333 -3332 0
3333 -3320 3332 0
-3334 28 0
-3334 -3320 0
3334 -28 3320 0
-3335 3322 0
-3335 -3334 0
3335 -3322 3334 0
-3336 28 0
-3336 -3322 0
3336 -28 3322 0
-3337 3324 0
-3337 -3336 0
3337 -3324 3336 0
-3338 28 0
-3338 -3324 0
3338 -28 3324 0
-3339 3326 0
-3339 -3338 0
3339 -3326 3338 0
-3340 28 0
-3340 -3326 0
3340 -28 3326 0
-3341 3328 0
-3341 -3340 0
3341 -3328 3340 0
-3342 3329 0
-3342 -29 0
3342 -3329 29 0
-3343 29 0
-3343 -3329 0
3343 -29 3329 0
-3344 3331 0
-3344 -3343 0
3344 -3331 3343 0
-3345 29 0
-3345 -3331 0
3345 -29 3331 0
-3346 3333 0
-3346 -3345 0
3346 -3333 3345 0
-3347 29 0
-3347 -3333 0
3347 -29 3333 0
-3348 3335 0
-3348 -3347 0
3348 -3335 3347 0
-3349 29 0
-3349 -3335 0
3349 -29 3335 0
-3350 3337 0
-3350 -3349 0
3350 -3337 3349 0
-3351 29 0
-3351 -3337 0
3351 -29 3337 0
-3352 3339 0
-3352 -3351 0
3352 -3339 3351 0
-3353 29 0
-3353 -3339 0
3353 -29 3339 0
-3354 3341 0
-3354 -3353 0
3354 -3341 3353 0
-3355 3342 0
-3355 -30 0
3355 -3342 30 0
-3356 30 0
-3356 -3342 0
3356 -30 3342 0
-3357 3344 0
-3357 -3356 0
3357 -3344 3356 0
-3358 30 0
-3358 -3344 0
3358 -30 3344 0
-3359 3346 0
-3359 -3358 0
3359 -3346 3358 0
-3360 30 0
-3360 -3346 0
3360 -30 3346 0
-3361 3348 0
-3361 -3360 0
3361 -3348 3360 0
-3362 30 0
-3362 -3348 0
3362 -30 3348 0
-3363 3350 0
-3363 -3362 0
3363 -3350 3362 0
-3364 30 0
-3364 -3350 0
3364 -30 3350 0
-3365 3352 0
-3365 -3364 0
3365 -3352 3364 0
-3366 30 0
-3366 -3352 0
3366 -30 3352 0
-3367 3354 0
-3367 -3366 0
3367 -3354 3366 0
-3368 3355 0
-3368 -31 0
3368 -3355 31 0
-3369 31 0
-3369 -3355 0
3369 -31 3355 0
-3370 3357 0
-3370 -3369 0
3370 -3357 3369 0
-3371 31 0
-3371 -3357 0
3371 -31 3357 0
-3372 3359 0
-3372 -3371 0
3372 -3359 3371 0
-3373 31 0
-3373 -3359 0
3373 -31 3359 0
-3374 3361 0
-3374 -3373 0
3374 -3361 3373 0
-3375 31 0
-3375 -3361 0
3375 -31 3361 0
-3376 3363 0
-3376 -3375 0
3376 -3363 3375 0
-3377 31 0
-3377 -3363 0
3377 -31 3363 0
-3378 3365 0
-3378 -3377 0
3378 -3365 3377 0
-3379 31 0
-3379 -3365 0
3379 -31 3365 0
-3380 3367 0
-3380 -3379 0
3380 -3367 3379 0
-3381 3368 0
-3381 -32 0
3381 -3368 32 0
-3382 32 0
-3382 -3368 0
3382 -32 3368 0
-3383 3370 0
-3383 -3382 0
3383 -3370 3382 0
-3384 32 0
-3384 -3370 0
3384 -32 3370 0
-3385 3372 0
-3385 -3384 0
3385 -3372 3384 0
-3386 32 0
-3386 -3372 0
3386 -32 3372 0
-3387 3374 0
-3387 -3386 0
3387 -3374 3386 0
-3388 32 0
-3388 -3374 0
3388 -32 3374 0
-3389 3376 0
-3389 -3388 0
3389 -3376 3388 0
-3390 32 0
-3390 -3376 0
3390 -32 3376 0
-3391 3378 0
-3391 -3390 0
3391 -3378 3390 0
-3392 32 0
-3392 -3378 0
3392 -32 3378 0
-3393 3380 0
-3393 -3392 0
3393 -3380 3392 0
-3394 3381 0
-3394 -33 0
3394 -3381 33 0
-3395 33 0
-3395 -3381 0
3395 -33 3381 0
-3396 3383 0
-3396 -3395 0
3396 -3383 3395 0
-3397 33 0
-3397 -3383 0
3397 -33 3383 0
-3398 3385 0
-3398 -3397 0
3398 -3385 3397 0
-3399 33 0
-3399 -3385 0
3399 -33 3385 0
-3400 3387 0
-3400 -3399 0
3400 -3387 3399 0
-3401 33 0
-3401 -3387 0
3401 -33 3387 0
-3402 3389 0
-3402 -3401 0
3402 -3389 3401 0
-3403 33 0
-3403 -3389 0
3403 -33 3389 0
-3404 3391 0
-3404 -3403 0
3404 -3391 3403 0
-3405 33 0
-3405 -3391 0
3405 -33 3391 0
-3406 3393 0
-3406 -3405 0
3406 -3393 3405 0
-3407 3394 0
-3407 -34 0
3407 -3394 34 0
-3408 34 0
-3408 -3394 0
3408 -34 3394 0
-3409 3396 0
-3409 -3408 0
3409 -3396 3408 0
-3410 34 0
-3410 -3396 0
3410 -34 3396 0
-3411 3398 0
-3411 -3410 0
3411 -3398 3410 0
-3412 34 0
-3412 -3398 0
3412 -34 3398 0
-3413 3400 0
-3413 -3412 0
3413 -3400 3412 0
-3414 34 0
-3414 -3400 0
3414 -34 3400 0
-3415 3402 0
-3415 -3414 0
3415 -3402 3414 0
-3416 34 0
-3416 -3402 0
3416 -34 3402 0
-3417 3404 0
-3417 -3416 0
3417 -3404 3416 0
-3418 34 0
-3418 -3404 0
3418 -34 3404 0
-3419 3406 0
-3419 -3418 0
3419 -3406 3418 0
-3420 3407 0
-3420 -35 0
3420 -3407 35 0
-3421 35 0
-3421 -3407 0
3421 -35 3407 0
-3422 3409 0
-3422 -3421 0
3422 -3409 3421 0
-3423 35 0
-3423 -3409 0
3423 -35 3409 0
-3424 3411 0
-3424 -3423 0
3424 -3411 3423 0
-3425 35 0
-3425 -3411 0
3425 -35 3411 0
-3426 3413 0
-3426 -3425 0
3426 -3413 3425 0
-3427 35 0
-3427 -3413 0
3427 -35 3413 0
-3428 3415 0
-3428 -3427 0
3428 -3415 3427 0
-3429 35 0
-3429 -3415 0
3429 -35 3415 0
-3430 3417 0
-3430 -3429 0
3430 -3417 3429 0
-3431 35 0
-3431 -3417 0
3431 -35 3417 0
-3432 3419 0
-3432 -3431 0
3432 -3419 3431 0
-3433 3420 0
-3433 -36 0
3433 -3420 36 0
-3434 36 0
-3434 -3420 0
3434 -36 3420 0
-3435 3422 0
-3435 -3434 0
3435 -3422 3434 0
-3436 36 0
-3436 -3422 0
3436 -36 3422 0
-3437 3424 0
-3437 -3436 0
3437 -3424 3436 0
-3438 36 0
-3438 -3424 0
3438 -36 3424 0
-3439 3426 0
-3439 -3438 0
3439 -3426 3438 0
-3440 36 0
-3440 -3426 0
3440 -36 3426 0
-3441 3428 0
-3441 -3440 0
3441 -3428 3440 0
-3442 36 0
-3442 -3428 0
3442 -36 3428 0
-3443 3430 0
-3443 -3442 0
3443 -3430 3442 0
-3444 36 0
-3444 -3430 0
3444 -36 3430 0
-3445 3432 0
-3445 -3444 0
3445 -3432 3444 0
-3446 3433 0
-3446 -37 0
3446 -3433 37 0
-3447 37 0
-3447 -3433 0
3447 -37 3433 0
-3448 3435 0
-3448 -3447 0
3448 -3435 3447 0
-3449 37 0
-3449 -3435 0
3449 -37 3435 0
-3450 3437 0
-3450 -3449 0
3450 -3437 3449 0
-3451 37 0
-3451 -3437 0
3451 -37 3437 0
-3452 3439 0
-3452 -3451 0
3452 -3439 3451 0
-3453 37 0
-3453 -3439 0
3453 -37 3439 0
-3454 3441 0
-3454 -3453 0
3454 -3441 3453 0
-3455 37 0
-3455 -3441 0
3455 -37 3441 0
-3456 3443 0
-3456 -3455 0
3456 -3443 3455 0
-3457 37 0
-3457 -3443 0
3457 -37 3443 0
-3458 3445 0
-3458 -3457 0
3458 -3445 3457 0
-3459 3446 0
-3459 -38 0
3459 -3446 38 0
-3460 38 0
-3460 -3446 0
3460 -38 3446 0
-3461 3448 0
-3461 -3460 0
3461 -3448 3460 0
-3462 38 0
-3462 -3448 0
3462 -38 3448 0
-3463 3450 0
-3463 -3462 0
3463 -3450 3462 0
-3464 38 0
-3464 -3450 0
3464 -38 3450 0
-3465 3452 0
-3465 -3464 0
3465 -3452 3464 0
-3466 38 0
-3466 -3452 0
3466 -38 3452 0
-3467 3454 0
-3467 -3466 0
3467 -3454 3466 0
-3468 38 0
-3468 -3454 0
3468 -38 3454 0
-3469 3456 0
-3469 -3468 0
3469 -3456 3468 0
-3470 38 0
-3470 -3456 0
3470 -38 3456 0
-3471 3458 0
-3471 -3470 0
3471 -3458 3470 0
-3472 3459 0
-3472 -38 0
3472 -3459 38 0
-3473 38 0
-3473 -3459 0
3473 -38 3459 0
-3474 3461 0
-3474 -3473 0
3474 -3461 3473 0
-3475 38 0
-3475 -3461 0
3475 -38 3461 0
-3476 3463 0
-3476 -3475 0
3476 -3463 3475 0
-3477 38 0
-3477 -3463 0
3477 -38 3463 0
-3478 3465 0
-3478 -3477 0
3478 -3465 3477 0
-3479 38 0
-3479 -3465 0
3479 -38 3465 0
-3480 3467 0
-3480 -3479 0
3480 -3467 3479 0
-3481 38 0
-3481 -3467 0
3481 -38 3467 0
-3482 3469 0
-3482 -3481 0
3482 -3469 3481 0
-3483 38 0
-3483 -3469 0
3483 -38 3469 0
-3484 3471 0
-3484 -3483 0
3484 -3471 3483 0
-3485 3472 0
-3485 -39 0
3485 -3472 39 0
-3486 39 0
-3486 -3472 0
3486 -39 3472 0
-3487 3474 0
-3487 -3486 0
3487 -3474 3486 0
-3488 39 0
-3488 -3474 0
3488 -39 3474 0
-3489 3476 0
-3489 -3488 0
3489 -3476 3488 0
-3490 39 0
-3490 -3476 0
3490 -39 3476 0
-3491 3478 0
-3491 -3490 0
3491 -3478 3490 0
-3492 39 0
-3492 -3478 0
3492 -39 3478 0
-3493 3480 0
-3493 -3492 0
3493 -3480 3492 0
-3494 39 0
-3494 -3480 0
3494 -39 3480 0
-3495 3482 0
-3495 -3494 0
3495 -3482 3494 0
-3496 39 0
-3496 -3482 0
3496 -39 3482 0
-3497 3484 0
-3497 -3496 0
3497 -3484 3496 0
-3498 3485 0
-3498 -39 0
3498 -3485 39 0
-3499 39 0
-3499 -3485 0
3499 -39 3485 0
-3500 3487 0
-3500 -3499 0
3500 -3487 3499 0
-3501 39 0
-3501 -3487 0
3501 -39 3487 0
-3502 3489 0
-3502 -3501 0
3502 -3489 3501 0
-3503 39 0
-3503 -3489 0
3503 -39 3489 0
-3504 3491 0
-3504 -3503 0
3504 -3491 3503 0
-3505 39 0
-3505 -3491 0
3505 -39 3491 0
-3506 3493 0
-3506 -3505 0
3506 -3493 3505 0
-3507 39 0
-3507 -3493 0
3507 -39 3493 0
-3508 3495 0
-3508 -3507 0
3508 -3495 3507 0
-3509 39 0
-3509 -3495 0
3509 -39 3495 0
-3510 3497 0
-3510 -3509 0
3510 -3497 3509 0
-3511 3498 0
-3511 -40 0
3511 -3498 40 0
-3512 40 0
-3512 -3498 0
3512 -40 3498 0
-3513 3500 0
-3513 -3512 0
3513 -3500 3512 0
-3514 40 0
-3514 -3500 0
3514 -40 3500 0
-3515 3502 0
-3515 -3514 0
3515 -3502 3514 0
-3516 40 0
-3516 -3502 0
3516 -40 3502 0
-3517 3504 0
-3517 -3516 0
3517 -3504 3516 0
-3518 40 0
-3518 -3504 0
3518 -40 3504 0
-3519 3506 0
-3519 -3518 0
3519 -3506 3518 0
-3520 40 0
-3520 -3506 0
3520 -40 3506 0
-3521 3508 0
-3521 -3520 0
3521 -3508 3520 0
-3522 40 0
-3522 -3508 0
3522 -40 3508 0
-3523 3510 0
-3523 -3522 0
3523 -3510 3522 0
-3524 3511 0
-3524 -40 0
3524 -3511 40 0
-3525 40 0
-3525 -3511 0
3525 -40 3511 0
-3526 3513 0
-3526 -3525 0
3526 -3513 3525 0
-3527 40 0
-3527 -3513 0
3527 -40 3513 0
-3528 3515 0
-3528 -3527 0
3528 -3515 3527 0
-3529 40 0
-3529 -3515 0
3529 -40 3515 0
-3530 3517 0
-3530 -3529 0
3530 -3517 3529 0
-3531 40 0
-3531 -3517 0
3531 -40 3517 0
-3532 3519 0
-3532 -3531 0
3532 -3519 3531 0
-3533 40 0
-3533 -3519 0
3533 -40 3519 0
-3534 3521 0
-3534 -3533 0
3534 -3521 3533 0
-3535 40 0
-3535 -3521 0
3535 -40 3521 0
-3536 3523 0
-3536 -3535 0
3536 -3523 3535 0
-3537 3524 0
-3537 -41 0
3537 -3524 41 0
-3538 41 0
-3538 -3524 0
3538 -41 3524 0
-3539 3526 0
-3539 -3538 0
3539 -3526 3538 0
-3540 41 0
-3540 -3526 0
3540 -41 3526 0
-3541 3528 0
-3541 -3540 0
3541 -3528 3540 0
-3542 41 0
-3542 -3528 0
3542 -41 3528 0
-3543 3530 0
-3543 -3542 0
3543 -3530 3542 0
-3544 41 0
-3544 -3530 0
3544 -41 3530 0
-3545 3532 0
-3545 -3544 0
3545 -3532 3544 0
-3546 41 0
-3546 -3532 0
3546 -41 3532 0
-3547 3534 0
-3547 -3546 0
3547 -3534 3546 0
-3548 41 0
-3548 -3534 0
3548 -41 3534 0
-3549 3536 0
-3549 -3548 0
3549 -3536 3548 0
-3550 3537 0
-3550 -41 0
3550 -3537 41 0
-3551 41 0
-3551 -3537 0
3551 -41 3537 0
-3552 3539 0
-3552 -3551 0
3552 -3539 3551 0
-3553 41 0
-3553 -3539 0
3553 -41 3539 0
-3554 3541 0
-3554 -3553 0
3554 -3541 3553 0
-3555 41 0
-3555 -3541 0
3555 -41 3541 0
-3556 3543 0
-3556 -3555 0
3556 -3543 3555 0
-3557 41 0
-3557 -3543 0
3557 -41 3543 0
-3558 3545 0
-3558 -3557 0
3558 -3545 3557 0
-3559 41 0
-3559 -3545 0
3559 -41 3545 0
-3560 3547 0
-3560 -3559 0
3560 -3547 3559 0
-3561 41 0
-3561 -3547 0
3561 -41 3547 0
-3562 3549 0
-3562 -3561 0
3562 -3549 3561 0
-3563 3550 0
-3563 -42 0
3563 -3550 42 0
-3564 42 0
-3564 -3550 0
3564 -42 3550 0
-3565 3552 0
-3565 -3564 0
3565 -3552 3564 0
-3566 42 0
-3566 -3552 0
3566 -42 3552 0
-3567 3554 0
-3567 -3566 0
3567 -3554 3566 0
-3568 42 0
-3568 -3554 0
3568 -42 3554 0
-3569 3556 0
-3569 -3568 0
3569 -3556 3568 0
-3570 42 0
-3570 -3556 0
3570 -42 3556 0
-3571 3558 0
-3571 -3570 0
3571 -3558 3570 0
-3572 42 0
-3572 -3558 0
3572 -42 3558 0
-3573 3560 0
-3573 -3572 0
3573 -3560 3572 0
-3574 42 0
-3574 -3560 0
3574 -42 3560 0
-3575 3562 0
-3575 -3574 0
3575 -3562 3574 0
-3576 3563 0
-3576 -42 0
3576 -3563 42 0
-3577 42 0
-3577 -3563 0
3577 -42 3563 0
-3578 3565 0
-3578 -3577 0
3578 -3565 3577 0
-3579 42 0
-3579 -3565 0
3579 -42 3565 0
-3580 3567 0
-3580 -3579 0
3580 -3567 3579 0
-3581 42 0
-3581 -3567 0
3581 -42 3567 0
-3582 3569 0
-3582 -3581 0
3582 -3569 3581 0
-3583 42 0
-3583 -3569 0
3583 -42 3569 0
-3584 3571 0
-3584 -3583 0
3584 -3571 3583 0
-3585 42 0
-3585 -3571 0
3585 -42 3571 0
-3586 3573 0
-3586 -3585 0
3586 -3573 3585 0
-3587 42 0
-3587 -3573 0
3587 -42 3573 0
-3588 3575 0
-3588 -3587 0
3588 -3575 3587 0
-3589 3576 0
-3589 -43 0
3589 -3576 43 0
-3590 43 0
-3590 -3576 0
3590 -43 3576 0
-3591 3578 0
-3591 -3590 0
3591 -3578 3590 0
-3592 43 0
-3592 -3578 0
3592 -43 3578 0
-3593 3580 0
-3593 -3592 0
3593 -3580 3592 0
-3594 43 0
-3594 -3580 0
3594 -43 3580 0
-3595 3582 0
-3595 -3594 0
3595 -3582 3594 0
-3596 43 0
-3596 -3582 0
3596 -43 3582 0
-3597 3584 0
-3597 -3596 0
3597 -3584 3596 0
-3598 43 0
-3598 -3584 0
3598 -43 3584 0
-3599 3586 0
-3599 -3598 0
3599 -3586 3598 0
-3600 43 0
-3600 -3586 0
3600 -43 3586 0
-3601 3588 0
-3601 -3600 0
3601 -3588 3600 0
-3602 3589 0
-3602 -43 0
3602 -3589 43 0
-3603 43 0
-3603 -3589 0
3603 -43 3589 0
-3604 3591 0
-3604 -3603 0
3604 -3591 3603 0
-3605 43 0
-3605 -3591 0
3605 -43 3591 0
-3606 3593 0
-3606 -3605 0
3606 -3593 3605 0
-3607 43 0
-3607 -3593 0
3607 -43 3593 0
-3608 3595 0
-3608 -3607 0
3608 -3595 3607 0
-3609 43 0
-3609 -3595 0
3609 -43 3595 0
-3610 3597 0
-3610 -3609 0
3610 -3597 3609 0
-3611 43 0
-3611 -3597 0
3611 -43 3597 0
-3612 3599 0
-3612 -3611 0
3612 -3599 3611 0
-3613 43 0
-3613 -3599 0
3613 -43 3599 0
-3614 3601 0
-3614 -3613 0
3614 -3601 3613 0
-3615 3602 0
-3615 -44 0
3615 -3602 44 0
-3616 44 0
-3616 -3602 0
3616 -44 3602 0
-3617 3604 0
-3617 -3616 0
3617 -3604 3616 0
-3618 44 0
-3618 -3604 0
3618 -44 3604 0
-3619 3606 0
-3619 -3618 0
3619 -3606 3618 0
-3620 44 0
-3620 -3606 0
3620 -44 3606 0
-3621 3608 0
-3621 -3620 0
3621 -3608 3620 0
-3622 44 0
-3622 -3608 0
3622 -44 3608 0
-3623 3610 0
-3623 -3622 0
3623 -3610 3622 0
-3624 44 0
-3624 -3610 0
3624 -44 3610 0
-3625 3612 0
-3625 -3624 0
3625 -3612 3624 0
-3626 44 0
-3626 -3612 0
3626 -44 3612 0
-3627 3614 0
-3627 -3626 0
3627 -3614 3626 0
-3628 3615 0
-3628 -44 0
3628 -3615 44 0
-3629 44 0
-3629 -3615 0
3629 -44 3615 0
-3630 3617 0
-3630 -3629 0
3630 -3617 3629 0
-3631 44 0
-3631 -3617 0
3631 -44 3617 0
-3632 3619 0
-3632 -3631 0
3632 -3619 3631 0
-3633 44 0
-3633 -3619 0
3633 -44 3619 0
-3634 3621 0
-3634 -3633 0
3634 -3621 3633 0
-3635 44 0
-3635 -3621 0
3635 -44 3621 0
-3636 3623 0
-3636 -3635 0
3636 -3623 3635 0
-3637 44 0
-3637 -3623 0
3637 -44 3623 0
-3638 3625 0
-3638 -3637 0
3638 -3625 3637 0
-3639 44 0
-3639 -3625 0
3639 -44 3625 0
-3640 3627 0
-3640 -3639 0
3640 -3627 3639 0
-3641 3628 0
-3641 -45 0
3641 -3628 45 0
-3642 45 0
-3642 -3628 0
3642 -45 3628 0
-3643 3630 0
-3643 -3642 0
3643 -3630 3642 0
-3644 45 0
-3644 -3630 0
3644 -45 3630 0
-3645 3632 0
-3645 -3644 0
3645 -3632 3644 0
-3646 45 0
-3646 -3632 0
3646 -45 3632 0
-3647 3634 0
-3647 -3646 0
3647 -3634 3646 0
-3648 45 0
-3648 -3634 0
3648 -45 3634 0
-3649 3636 0
-3649 -3648 0
3649 -3636 3648 0
-3650 45 0
-3650 -3636 0
3650 -45 3636 0
-3651 3638 0
-3651 -3650 0
3651 -3638 3650 0
-3652 45 0
-3652 -3638 0
3652 -45 3638 0
-3653 3640 0
-3653 -3652 0
3653 -3640 3652 0
-3654 3641 0
-3654 -45 0
3654 -3641 45 0
-3655 45 0
-3655 -3641 0
3655 -45 3641 0
-3656 3643 0
-3656 -3655 0
3656 -3643 3655 0
-3657 45 0
-3657 -3643 0
3657 -45 3643 0
-3658 3645 0
-3658 -3657 0
3658 -3645 3657 0
-3659 45 0
-3659 -3645 0
3659 -45 3645 0
-3660 3647 0
-3660 -3659 0
3660 -3647 3659 0
-3661 45 0
-3661 -3647 0
3661 -45 3647 0
-3662 3649 0
-3662 -3661 0
3662 -3649 3661 0
-3663 45 0
-3663 -3649 0
3663 -45 3649 0
-3664 3651 0
-3664 -3663 0
3664 -3651 3663 0
-3665 45 0
-3665 -3651 0
3665 -45 3651 0
-3666 3653 0
-3666 -3665 0
3666 -3653 3665 0
-3667 3654 0
-3667 -46 0
3667 -3654 46 0
-3668 46 0
-3668 -3654 0
3668 -46 3654 0
-3669 3656 0
-3669 -3668 0
3669 -3656 3668 0
-3670 46 0
-3670 -3656 0
3670 -46 3656 0
-3671 3658 0
-3671 -3670 0
3671 -3658 3670 0
-3672 46 0
-3672 -3658 0
3672 -46 3658 0
-3673 3660 0
-3673 -3672 0
3673 -3660 3672 0
-3674 46 0
-3674 -3660 0
3674 -46 3660 0
-3675 3662 0
-3675 -3674 0
3675 -3662 3674 0
-3676 46 0
-3676 -3662 0
3676 -46 3662 0
-3677 3664 0
-3677 -3676 0
3677 -3664 3676 0
-3678 46 0
-3678 -3664 0
3678 -46 3664 0
-3679 3666 0
-3679 -3678 0
3679 -3666 3678 0
-3680 3667 0
-3680 -46 0
3680 -3667 46 0
-3681 46 0
-3681 -3667 0
3681 -46 3667 0
-3682 3669 0
-3682 -3681 0
3682 -3669 3681 0
-3683 46 0
-3683 -3669 0
3683 -46 3669 0
-3684 3671 0
-3684 -3683 0
3684 -3671 3683 0
-3685 46 0
-3685 -3671 0
3685 -46 3671 0
-3686 3673 0
-3686 -3685 0
3686 -3673 3685 0
-3687 46 0
-3687 -3673 0
3687 -46 3673 0
-3688 3675 0
-3688 -3687 0
3688 -3675 3687 0
-3689 46 0
-3689 -3675 0
3689 -46 3675 0
-3690 3677 0
-3690 -3689 0
3690 -3677 3689 0
-3691 46 0
-3691 -3677 0
3691 -46 3677 0
-3692 3679 0
-3692 -3691 0
3692 -3679 3691 0
-3693 3680 0
-3693 -47 0
3693 -3680 47 0
-3694 47 0
-3694 -3680 0
3694 -47 3680 0
-3695 3682 0
-3695 -3694 0
3695 -3682 3694 0
-3696 47 0
-3696 -3682 0
3696 -47 3682 0
-3697 3684 0
-3697 -3696 0
3697 -3684 3696 0
-3698 47 0
-3698 -3684 0
3698 -47 3684 0
-3699 3686 0
-3699 -3698 0
3699 -3686 3698 0
-3700 47 0
-3700 -3686 0
3700 -47 3686 0
-3701 3688 0
-3701 -3700 0
3701 -3688 3700 0
-3702 47 0
-3702 -3688 0
3702 -47 3688 0
-3703 3690 0
-3703 -3702 0
3703 -3690 3702 0
-3704 47 0
-3704 -3690 0
3704 -47 3690 0
-3705 3692 0
-3705 -3704 0
3705 -3692 3704 0
-3706 3693 0
-3706 -47 0
3706 -3693 47 0
-3707 47 0
-3707 -3693 0
3707 -47 3693 0
-3708 3695 0
-3708 -3707 0
3708 -3695 3707 0
-3709 47 0
-3709 -3695 0
3709 -47 3695 0
-3710 3697 0
-3710 -3709 0
3710 -3697 3709 0
-3711 47 0
-3711 -3697 0
3711 -47 3697 0
-3712 3699 0
-3712 -3711 0
3712 -3699 3711 0
-3713 47 0
-3713 -3699 0
3713 -47 3699 0
-3714 3701 0
-3714 -3713 0
3714 -3701 3713 0
-3715 47 0
-3715 -3701 0
3715 -47 3701 0
-3716 3703 0
-3716 -3715 0
3716 -3703 3715 0
-3717 47 0
-3717 -3703 0
3717 -47 3703 0
-3718 3705 0
-3718 -3717 0
3718 -3705 3717 0
-3719 3706 0
-3719 -48 0
3719 -3706 48 0
-3720 48 0
-3720 -3706 0
3720 -48 3706 0
-3721 3708 0
-3721 -3720 0
3721 -3708 3720 0
-3722 48 0
-3722 -3708 0
3722 -48 3708 0
-3723 3710 0
-3723 -3722 0
3723 -3710 3722 0
-3724 48 0
-3724 -3710 0
3724 -48 3710 0
-3725 3712 0
-3725 -3724 0
3725 -3712 3724 0
-3726 48 0
-3726 -3712 0
3726 -48 3712 0
-3727 3714 0
-3727 -3726 0
3727 -3714 3726 0
-3728 48 0
-3728 -3714 0
3728 -48 3714 0
-3729 3716 0
-3729 -3728 0
3729 -3716 3728 0
-3730 48 0
-3730 -3716 0
3730 -48 3716 0
-3731 3718 0
-3731 -3730 0
3731 -3718 3730 0
-3732 3719 0
-3732 -48 0
3732 -3719 48 0
-3733 48 0
-3733 -3719 0
3733 -48 3719 0
-3734 3721 0
-3734 -3733 0
3734 -3721 3733 0
-3735 48 0
-3735 -3721 0
3735 -48 3721 0
-3736 3723 0
-3736 -3735 0
3736 -3723 3735 0
-3737 48 0
-3737 -3723 0
3737 -48 3723 0
-3738 3725 0
-3738 -3737 0
3738 -3725 3737 0
-3739 48 0
-3739 -3725 0
3739 -48 3725 0
-3740 3727 0
-3740 -3739 0
3740 -3727 3739 0
-3741 48 0
-3741 -3727 0
3741 -48 3727 0
-3742 3729 0
-3742 -3741 0
3742 -3729 3741 0
-3743 48 0
-3743 -3729 0
3743 -48 3729 0
-3744 3731 0
-3744 -3743 0
3744 -3731 3743 0
-3745 3732 0
-3745 -49 0
3745 -3732 49 0
-3746 49 0
-3746 -3732 0
3746 -49 3732 0
-3747 3734 0
-3747 -3746 0
3747 -3734 3746 0
-3748 49 0
-3748 -3734 0
3748 -49 3734 0
-3749 3736 0
-3749 -3748 0
3749 -3736 3748 0
-3750 49 0
-3750 -3736 0
3750 -49 3736 0
-3751 3738 0
-3751 -3750 0
3751 -3738 3750 0
-3752 49 0
-3752 -3738 0
3752 -49 3738 0
-3753 3740 0
-3753 -3752 0
3753 -3740 3752 0
-3754 49 0
-3754 -3740 0
3754 -49 3740 0
-3755 3742 0
-3755 -3754 0
3755 -3742 3754 0
-3756 49 0
-3756 -3742 0
3756 -49 3742 0
-3757 3744 0
-3757 -3756 0
3757 -3744 3756 0
-3757 0
